    2    2    1    1
  0.2016476E+02  0.3849279E-09  0.3849279E-09  0.3849279E-09  0.5000000E-15
   1.0000000000000000E-004
  CAR 
 unknown system                          
      8    100     48

  0.0000000E+00  0.0000000E+00  0.0000000E+00  0.1000000E-01
      1         -6.190308   1.000000
      2          5.762463   1.000000
      3          5.762463   1.000000
      4          5.762463   1.000000
      5          8.258695   0.000000
      6          8.258695   0.000000
      7          8.258695   0.000000
      8          9.004203   0.000000
      9         13.423546   0.000000
     10         13.439725   0.000000
     11         13.439725   0.000000
     12         16.806428   0.000000
     13         16.806428   0.000000
     14         16.806428   0.000000
     15         20.774053   0.000000
     16         28.702898   0.000000
     17         28.702898   0.000000
     18         28.702898   0.000000
     19         29.887986   0.000000
     20         29.887986   0.000000
     21         31.347318   0.000000
     22         31.347319   0.000000
     23         31.347319   0.000000
     24         34.846543   0.000000
     25         34.846543   0.000000
     26         34.846543   0.000000
     27         40.495473   0.000000
     28         40.495473   0.000000
     29         40.495473   0.000000
     30         43.671082   0.000000
     31         44.276440   0.000000
     32         44.276440   0.000000
     33         46.152444   0.000000
     34         46.152444   0.000000
     35         47.678381   0.000000
     36         47.678381   0.000000
     37         47.678382   0.000000
     38         49.443201   0.000000
     39         49.443206   0.000000
     40         49.443227   0.000000
     41         50.038917   0.000000
     42         50.441419   0.000000
     43         50.441459   0.000000
     44         50.442744   0.000000
     45         50.533756   0.000000
     46         50.533861   0.000000
     47         50.534337   0.000000
     48         51.890159   0.000000

  0.2631579E-01  0.0000000E+00  0.2631579E-01  0.1000000E-01
      1         -6.178131   1.000000
      2          5.679672   1.000000
      3          5.710447   1.000000
      4          5.710447   1.000000
      5          8.228432   0.000000
      6          8.328161   0.000000
      7          8.328161   0.000000
      8          9.086732   0.000000
      9         13.342178   0.000000
     10         13.460738   0.000000
     11         13.479189   0.000000
     12         16.830322   0.000000
     13         16.830322   0.000000
     14         16.881841   0.000000
     15         20.865585   0.000000
     16         28.530371   0.000000
     17         28.530371   0.000000
     18         28.741319   0.000000
     19         29.753866   0.000000
     20         29.795718   0.000000
     21         31.442818   0.000000
     22         31.487051   0.000000
     23         31.487051   0.000000
     24         34.943704   0.000000
     25         34.943704   0.000000
     26         35.021718   0.000000
     27         40.442167   0.000000
     28         40.444022   0.000000
     29         40.444022   0.000000
     30         43.739426   0.000000
     31         44.092467   0.000000
     32         44.281654   0.000000
     33         45.847876   0.000000
     34         46.152669   0.000000
     35         47.671492   0.000000
     36         47.726591   0.000000
     37         47.726591   0.000000
     38         49.138409   0.000000
     39         49.138410   0.000000
     40         49.558558   0.000000
     41         50.010144   0.000000
     42         50.010171   0.000000
     43         50.360200   0.000000
     44         50.597029   0.000000
     45         50.619652   0.000000
     46         50.760312   0.000000
     47         50.760409   0.000000
     48         51.957295   0.000000

  0.5263158E-01  0.0000000E+00  0.5263158E-01  0.1000000E-01
      1         -6.141818   1.000000
      2          5.450592   1.000000
      3          5.566352   1.000000
      4          5.566352   1.000000
      5          8.138049   0.000000
      6          8.516608   0.000000
      7          8.516608   0.000000
      8          9.306231   0.000000
      9         13.067510   0.000000
     10         13.500733   0.000000
     11         13.640869   0.000000
     12         16.894013   0.000000
     13         16.894013   0.000000
     14         17.066995   0.000000
     15         21.135478   0.000000
     16         28.048925   0.000000
     17         28.048925   0.000000
     18         28.786077   0.000000
     19         29.325640   0.000000
     20         29.498175   0.000000
     21         31.636006   0.000000
     22         31.771183   0.000000
     23         31.771183   0.000000
     24         35.223097   0.000000
     25         35.223097   0.000000
     26         35.472588   0.000000
     27         40.178562   0.000000
     28         40.178562   0.000000
     29         40.181804   0.000000
     30         43.505513   0.000000
     31         43.892192   0.000000
     32         44.187520   0.000000
     33         45.171290   0.000000
     34         46.101460   0.000000
     35         47.625182   0.000000
     36         47.817360   0.000000
     37         47.817364   0.000000
     38         48.451061   0.000000
     39         48.451064   0.000000
     40         49.419409   0.000000
     41         49.419410   0.000000
     42         49.702211   0.000000
     43         50.769048   0.000000
     44         51.053387   0.000000
     45         51.190481   0.000000
     46         51.251667   0.000000
     47         51.251709   0.000000
     48         52.143784   0.000000

  0.7894737E-01  0.0000000E+00  0.7894737E-01  0.1000000E-01
      1         -6.081339   1.000000
      2          5.122392   1.000000
      3          5.363264   1.000000
      4          5.363264   1.000000
      5          8.000123   0.000000
      6          8.793389   0.000000
      7          8.793389   0.000000
      8          9.601709   0.000000
      9         12.707370   0.000000
     10         13.567465   0.000000
     11         13.897252   0.000000
     12         17.000033   0.000000
     13         17.000033   0.000000
     14         17.308801   0.000000
     15         21.569705   0.000000
     16         27.425835   0.000000
     17         27.425835   0.000000
     18         28.733568   0.000000
     19         28.862237   0.000000
     20         29.106650   0.000000
     21         31.854217   0.000000
     22         32.071526   0.000000
     23         32.071526   0.000000
     24         35.681513   0.000000
     25         35.681513   0.000000
     26         36.097803   0.000000
     27         39.758437   0.000000
     28         39.758437   0.000000
     29         39.787014   0.000000
     30         42.686950   0.000000
     31         43.821168   0.000000
     32         44.043207   0.000000
     33         44.708371   0.000000
     34         46.033102   0.000000
     35         47.535969   0.000000
     36         47.535969   0.000000
     37         47.539452   0.000000
     38         47.964651   0.000000
     39         47.964651   0.000000
     40         49.053182   0.000000
     41         49.053182   0.000000
     42         49.861093   0.000000
     43         51.043463   0.000000
     44         51.579893   0.000000
     45         51.808697   0.000000
     46         51.808812   0.000000
     47         52.259684   0.000000
     48         52.444824   0.000000

  0.1052632E+00  0.0000000E+00  0.1052632E+00  0.1000000E-01
      1         -5.996816   1.000000
      2          4.734115   1.000000
      3          5.129419   1.000000
      4          5.129420   1.000000
      5          7.828719   0.000000
      6          9.129867   0.000000
      7          9.129867   0.000000
      8          9.894887   0.000000
      9         12.358632   0.000000
     10         13.660920   0.000000
     11         14.233613   0.000000
     12         17.147996   0.000000
     13         17.147996   0.000000
     14         17.570736   0.000000
     15         22.144573   0.000000
     16         26.740839   0.000000
     17         26.740839   0.000000
     18         28.054449   0.000000
     19         28.664161   0.000000
     20         28.971849   0.000000
     21         32.053825   0.000000
     22         32.330703   0.000000
     23         32.330703   0.000000
     24         36.294206   0.000000
     25         36.294206   0.000000
     26         36.813252   0.000000
     27         39.206851   0.000000
     28         39.206851   0.000000
     29         39.278855   0.000000
     30         41.736844   0.000000
     31         43.196110   0.000000
     32         43.861399   0.000000
     33         44.887858   0.000000
     34         45.968119   0.000000
     35         46.695903   0.000000
     36         46.695903   0.000000
     37         47.417646   0.000000
     38         47.863252   0.000000
     39         47.863253   0.000000
     40         48.974204   0.000000
     41         48.974204   0.000000
     42         50.053138   0.000000
     43         51.407538   0.000000
     44         51.956635   0.000000
     45         52.381448   0.000000
     46         52.382879   0.000000
     47         52.845879   0.000000
     48         53.448020   0.000000

  0.1315789E+00  0.0000000E+00  0.1315789E+00  0.1000000E-01
      1         -5.888287   1.000000
      2          4.310648   1.000000
      3          4.884138   1.000000
      4          4.884138   1.000000
      5          7.637598   0.000000
      6          9.507305   0.000000
      7          9.507305   0.000000
      8         10.073997   0.000000
      9         12.145660   0.000000
     10         13.781074   0.000000
     11         14.635524   0.000000
     12         17.339610   0.000000
     13         17.339610   0.000000
     14         17.840884   0.000000
     15         22.831176   0.000000
     16         26.038446   0.000000
     17         26.038446   0.000000
     18         27.333766   0.000000
     19         28.197828   0.000000
     20         29.120452   0.000000
     21         32.221642   0.000000
     22         32.545953   0.000000
     23         32.545953   0.000000
     24         37.036875   0.000000
     25         37.036875   0.000000
     26         37.567433   0.000000
     27         38.552130   0.000000
     28         38.552130   0.000000
     29         38.668438   0.000000
     30         40.714468   0.000000
     31         42.500508   0.000000
     32         43.654776   0.000000
     33         45.266766   0.000000
     34         45.877612   0.000000
     35         45.877613   0.000000
     36         45.930905   0.000000
     37         47.267000   0.000000
     38         47.608210   0.000000
     39         47.608211   0.000000
     40         49.130314   0.000000
     41         49.130315   0.000000
     42         50.278335   0.000000
     43         51.848270   0.000000
     44         51.909333   0.000000
     45         52.830524   0.000000
     46         52.834670   0.000000
     47         53.336117   0.000000
     48         53.596456   0.000000

  0.1578947E+00  0.0000000E+00  0.1578947E+00  0.1000000E-01
      1         -5.756060   1.000000
      2          3.866247   1.000000
      3          4.638183   1.000000
      4          4.638183   1.000000
      5          7.437830   0.000000
      6          9.912099   0.000000
      7          9.912099   0.000000
      8         10.019768   0.000000
      9         12.195037   0.000000
     10         13.927899   0.000000
     11         15.089544   0.000000
     12         17.568441   0.000000
     13         17.568441   0.000000
     14         18.120538   0.000000
     15         23.598260   0.000000
     16         25.326103   0.000000
     17         25.326103   0.000000
     18         26.595071   0.000000
     19         27.704167   0.000000
     20         29.309032   0.000000
     21         32.317501   0.000000
     22         32.721582   0.000000
     23         32.721582   0.000000
     24         37.675242   0.000000
     25         37.675242   0.000000
     26         37.967572   0.000000
     27         37.988151   0.000000
     28         37.988151   0.000000
     29         38.309238   0.000000
     30         39.653925   0.000000
     31         41.894019   0.000000
     32         43.434362   0.000000
     33         45.113916   0.000000
     34         45.113916   0.000000
     35         45.678028   0.000000
     36         45.949035   0.000000
     37         47.093793   0.000000
     38         47.295544   0.000000
     39         47.295544   0.000000
     40         49.350454   0.000000
     41         49.350454   0.000000
     42         50.531753   0.000000
     43         51.510053   0.000000
     44         52.354319   0.000000
     45         52.741625   0.000000
     46         52.742907   0.000000
     47         53.913814   0.000000
     48         53.937730   0.000000

  0.1842105E+00  0.0000000E+00  0.1842105E+00  0.1000000E-01
      1         -5.600292   1.000000
      2          3.409294   1.000000
      3          4.399219   1.000000
      4          4.399219   1.000000
      5          7.238606   0.000000
      6          9.749702   0.000000
      7         10.337177   0.000000
      8         10.337177   0.000000
      9         12.494369   0.000000
     10         14.101358   0.000000
     11         15.584587   0.000000
     12         17.834041   0.000000
     13         17.834041   0.000000
     14         18.415966   0.000000
     15         24.416857   0.000000
     16         24.625015   0.000000
     17         24.625015   0.000000
     18         25.853506   0.000000
     19         27.205874   0.000000
     20         29.548449   0.000000
     21         32.344205   0.000000
     22         32.866833   0.000000
     23         32.866833   0.000000
     24         36.976535   0.000000
     25         36.976535   0.000000
     26         37.203480   0.000000
     27         38.575882   0.000000
     28         38.760805   0.000000
     29         38.760805   0.000000
     30         39.007097   0.000000
     31         41.411884   0.000000
     32         43.209010   0.000000
     33         44.409322   0.000000
     34         44.409322   0.000000
     35         46.053012   0.000000
     36         46.081919   0.000000
     37         46.903468   0.000000
     38         46.980978   0.000000
     39         46.980978   0.000000
     40         49.518303   0.000000
     41         49.518304   0.000000
     42         50.817287   0.000000
     43         50.978956   0.000000
     44         52.552084   0.000000
     45         52.552210   0.000000
     46         52.916138   0.000000
     47         54.540326   0.000000
     48         54.590883   0.000000

  0.2105263E+00  0.0000000E+00  0.2105263E+00  0.1000000E-01
      1         -5.421188   1.000000
      2          2.944849   1.000000
      3          4.171967   1.000000
      4          4.171967   1.000000
      5          7.046770   0.000000
      6          9.375623   0.000000
      7         10.778138   0.000000
      8         10.778138   0.000000
      9         12.935135   0.000000
     10         14.301412   0.000000
     11         16.110513   0.000000
     12         18.134050   0.000000
     13         18.134050   0.000000
     14         18.733770   0.000000
     15         23.950693   0.000000
     16         23.950693   0.000000
     17         25.120904   0.000000
     18         25.259270   0.000000
     19         26.708269   0.000000
     20         29.857060   0.000000
     21         32.278764   0.000000
     22         32.977002   0.000000
     23         32.977002   0.000000
     24         36.160555   0.000000
     25         36.160555   0.000000
     26         36.414081   0.000000
     27         37.493944   0.000000
     28         39.652607   0.000000
     29         39.678863   0.000000
     30         39.678863   0.000000
     31         41.048720   0.000000
     32         42.985518   0.000000
     33         43.763089   0.000000
     34         43.763089   0.000000
     35         46.274664   0.000000
     36         46.445387   0.000000
     37         46.682386   0.000000
     38         46.682386   0.000000
     39         46.699235   0.000000
     40         49.565622   0.000000
     41         49.565622   0.000000
     42         50.414464   0.000000
     43         51.146984   0.000000
     44         52.543220   0.000000
     45         52.543223   0.000000
     46         53.525888   0.000000
     47         55.025637   0.000000
     48         55.285516   0.000000

  0.2368421E+00  0.0000000E+00  0.2368421E+00  0.1000000E-01
      1         -5.219155   1.000000
      2          2.475831   1.000000
      3          3.959029   1.000000
      4          3.959029   1.000000
      5          6.867451   0.000000
      6          8.971501   0.000000
      7         11.230194   0.000000
      8         11.230194   0.000000
      9         13.442996   0.000000
     10         14.528002   0.000000
     11         16.656741   0.000000
     12         18.451999   0.000000
     13         18.451999   0.000000
     14         19.079672   0.000000
     15         23.309298   0.000000
     16         23.309298   0.000000
     17         24.395911   0.000000
     18         26.090265   0.000000
     19         26.220204   0.000000
     20         30.242548   0.000000
     21         32.097702   0.000000
     22         33.009580   0.000000
     23         33.009580   0.000000
     24         35.378171   0.000000
     25         35.378171   0.000000
     26         35.644667   0.000000
     27         36.418292   0.000000
     28         40.166176   0.000000
     29         40.596275   0.000000
     30         40.596275   0.000000
     31         40.793310   0.000000
     32         42.768967   0.000000
     33         43.176949   0.000000
     34         43.176949   0.000000
     35         46.405184   0.000000
     36         46.405184   0.000000
     37         46.481569   0.000000
     38         46.641120   0.000000
     39         46.738701   0.000000
     40         49.486239   0.000000
     41         49.486239   0.000000
     42         49.855448   0.000000
     43         51.537427   0.000000
     44         52.735235   0.000000
     45         52.735236   0.000000
     46         54.177466   0.000000
     47         54.740737   0.000000
     48         56.058962   0.000000

  0.2631579E+00  0.0000000E+00  0.2631579E+00  0.1000000E-01
      1         -4.994505   1.000000
      2          2.004617   1.000000
      3          3.762707   1.000000
      4          3.762707   1.000000
      5          6.704624   0.000000
      6          8.571537   0.000000
      7         11.691675   0.000000
      8         11.691675   0.000000
      9         13.983936   0.000000
     10         14.781072   0.000000
     11         17.211607   0.000000
     12         18.769247   0.000000
     13         18.769247   0.000000
     14         19.458445   0.000000
     15         22.729266   0.000000
     16         22.729266   0.000000
     17         23.685957   0.000000
     18         25.752362   0.000000
     19         26.876146   0.000000
     20         30.733518   0.000000
     21         31.775432   0.000000
     22         32.860665   0.000000
     23         32.860665   0.000000
     24         34.756026   0.000000
     25         34.756026   0.000000
     26         34.940507   0.000000
     27         35.358739   0.000000
     28         40.560003   0.000000
     29         40.634406   0.000000
     30         41.470201   0.000000
     31         41.470201   0.000000
     32         42.563106   0.000000
     33         42.685214   0.000000
     34         42.685214   0.000000
     35         46.152490   0.000000
     36         46.152490   0.000000
     37         46.248768   0.000000
     38         46.942396   0.000000
     39         47.164987   0.000000
     40         49.323506   0.000000
     41         49.333209   0.000000
     42         49.333209   0.000000
     43         52.003152   0.000000
     44         53.073005   0.000000
     45         53.073010   0.000000
     46         54.109811   0.000000
     47         54.865108   0.000000
     48         56.833373   0.000000

  0.2894737E+00  0.0000000E+00  0.2894737E+00  0.1000000E-01
      1         -4.747638   1.000000
      2          1.532644   1.000000
      3          3.584478   1.000000
      4          3.584479   1.000000
      5          6.561493   0.000000
      6          8.190808   0.000000
      7         12.161882   0.000000
      8         12.161882   0.000000
      9         14.540951   0.000000
     10         15.061230   0.000000
     11         17.759996   0.000000
     12         19.041350   0.000000
     13         19.041350   0.000000
     14         19.877157   0.000000
     15         22.256350   0.000000
     16         22.256350   0.000000
     17         22.993589   0.000000
     18         25.321888   0.000000
     19         27.587077   0.000000
     20         31.304511   0.000000
     21         31.346500   0.000000
     22         32.389437   0.000000
     23         32.389437   0.000000
     24         34.322723   0.000000
     25         34.334621   0.000000
     26         34.450031   0.000000
     27         34.450031   0.000000
     28         40.562816   0.000000
     29         40.839937   0.000000
     30         41.852451   0.000000
     31         41.852451   0.000000
     32         42.371253   0.000000
     33         42.721523   0.000000
     34         42.721523   0.000000
     35         45.926139   0.000000
     36         45.926139   0.000000
     37         45.987047   0.000000
     38         47.053347   0.000000
     39         47.839637   0.000000
     40         48.837387   0.000000
     41         49.167432   0.000000
     42         49.167432   0.000000
     43         52.490951   0.000000
     44         53.169719   0.000000
     45         53.498528   0.000000
     46         53.498529   0.000000
     47         55.587634   0.000000
     48         57.628405   0.000000

  0.3157895E+00  0.0000000E+00  0.3157895E+00  0.1000000E-01
      1         -4.479106   1.000000
      2          1.062322   1.000000
      3          3.425362   1.000000
      4          3.425362   1.000000
      5          6.440113   0.000000
      6          7.838686   0.000000
      7         12.637273   0.000000
      8         12.637273   0.000000
      9         15.101872   0.000000
     10         15.367011   0.000000
     11         18.280202   0.000000
     12         19.181787   0.000000
     13         19.181787   0.000000
     14         20.330845   0.000000
     15         21.973334   0.000000
     16         21.973335   0.000000
     17         22.320652   0.000000
     18         24.939724   0.000000
     19         28.198992   0.000000
     20         30.679875   0.000000
     21         31.641253   0.000000
     22         31.641253   0.000000
     23         32.017717   0.000000
     24         33.399027   0.000000
     25         33.826538   0.000000
     26         34.412236   0.000000
     27         34.412236   0.000000
     28         40.562721   0.000000
     29         41.026582   0.000000
     30         41.499884   0.000000
     31         41.499884   0.000000
     32         42.194016   0.000000
     33         43.490251   0.000000
     34         43.490252   0.000000
     35         45.708229   0.000000
     36         45.725461   0.000000
     37         45.725461   0.000000
     38         47.062792   0.000000
     39         48.406539   0.000000
     40         48.643512   0.000000
     41         49.037309   0.000000
     42         49.037309   0.000000
     43         51.752692   0.000000
     44         53.318128   0.000000
     45         53.937423   0.000000
     46         53.937438   0.000000
     47         56.328915   0.000000
     48         58.250856   0.000000

  0.3421053E+00  0.0000000E+00  0.3421053E+00  0.1000000E-01
      1         -4.189386   1.000000
      2          0.595334   1.000000
      3          3.286244   1.000000
      4          3.286244   1.000000
      5          6.342891   0.000000
      6          7.520419   0.000000
      7         13.119655   0.000000
      8         13.119655   0.000000
      9         15.662303   0.000000
     10         15.699026   0.000000
     11         18.741477   0.000000
     12         19.105771   0.000000
     13         19.105771   0.000000
     14         20.826257   0.000000
     15         21.669810   0.000000
     16         21.975910   0.000000
     17         21.975910   0.000000
     18         24.643709   0.000000
     19         28.742997   0.000000
     20         29.960316   0.000000
     21         30.780855   0.000000
     22         30.780855   0.000000
     23         31.997947   0.000000
     24         33.343183   0.000000
     25         33.394734   0.000000
     26         34.504640   0.000000
     27         34.504640   0.000000
     28         40.627005   0.000000
     29         41.089354   0.000000
     30         41.089354   0.000000
     31         41.153261   0.000000
     32         42.033463   0.000000
     33         44.293416   0.000000
     34         44.293416   0.000000
     35         45.402073   0.000000
     36         45.552665   0.000000
     37         45.552665   0.000000
     38         46.978998   0.000000
     39         48.044762   0.000000
     40         48.986692   0.000000
     41         48.986692   0.000000
     42         49.551546   0.000000
     43         50.470134   0.000000
     44         54.035462   0.000000
     45         54.353728   0.000000
     46         54.353728   0.000000
     47         57.080125   0.000000
     48         58.547390   0.000000

  0.3684211E+00  0.0000000E+00  0.3684211E+00  0.1000000E-01
      1         -3.879251   1.000000
      2          0.132687   1.000000
      3          3.167686   1.000000
      4          3.167686   1.000000
      5          6.271251   0.000000
      6          7.236090   0.000000
      7         13.606930   0.000000
      8         13.606930   0.000000
      9         16.057165   0.000000
     10         16.212131   0.000000
     11         18.808283   0.000000
     12         18.808283   0.000000
     13         19.102228   0.000000
     14         21.039448   0.000000
     15         21.363098   0.000000
     16         22.257639   0.000000
     17         22.257639   0.000000
     18         24.465210   0.000000
     19         29.181109   0.000000
     20         29.185310   0.000000
     21         29.882569   0.000000
     22         29.882569   0.000000
     23         31.162066   0.000000
     24         33.004246   0.000000
     25         34.245052   0.000000
     26         34.635734   0.000000
     27         34.635734   0.000000
     28         40.707639   0.000000
     29         40.707639   0.000000
     30         40.728421   0.000000
     31         41.227766   0.000000
     32         41.890333   0.000000
     33         44.993750   0.000000
     34         44.993750   0.000000
     35         45.070430   0.000000
     36         45.408042   0.000000
     37         45.408042   0.000000
     38         46.763683   0.000000
     39         47.756638   0.000000
     40         49.056009   0.000000
     41         49.056009   0.000000
     42         49.246236   0.000000
     43         50.535742   0.000000
     44         54.695148   0.000000
     45         54.695148   0.000000
     46         54.833483   0.000000
     47         57.813130   0.000000
     48         58.996164   0.000000

  0.3947368E+00  0.0000000E+00  0.3947368E+00  0.1000000E-01
      1         -3.549294   1.000000
      2         -0.323541   1.000000
      3          3.070204   1.000000
      4          3.070204   1.000000
      5          6.226931   0.000000
      6          6.987415   0.000000
      7         14.100973   0.000000
      8         14.100973   0.000000
      9         16.443079   0.000000
     10         16.748932   0.000000
     11         18.384400   0.000000
     12         18.384400   0.000000
     13         19.317838   0.000000
     14         20.432288   0.000000
     15         21.940833   0.000000
     16         22.731393   0.000000
     17         22.731393   0.000000
     18         24.442178   0.000000
     19         28.401763   0.000000
     20         28.981039   0.000000
     21         28.981039   0.000000
     22         29.482560   0.000000
     23         30.358342   0.000000
     24         32.635009   0.000000
     25         34.780054   0.000000
     26         34.780054   0.000000
     27         35.319963   0.000000
     28         40.374300   0.000000
     29         40.374300   0.000000
     30         40.844966   0.000000
     31         41.282417   0.000000
     32         41.766694   0.000000
     33         44.724129   0.000000
     34         45.277199   0.000000
     35         45.277199   0.000000
     36         45.563022   0.000000
     37         45.563022   0.000000
     38         46.300727   0.000000
     39         47.541736   0.000000
     40         48.282433   0.000000
     41         49.283310   0.000000
     42         49.283310   0.000000
     43         51.586463   0.000000
     44         54.926842   0.000000
     45         54.926843   0.000000
     46         55.688709   0.000000
     47         58.447113   0.000000
     48         59.507190   0.000000

  0.4210526E+00  0.0000000E+00  0.4210526E+00  0.1000000E-01
      1         -3.200504   1.000000
      2         -0.771748   1.000000
      3          2.994040   1.000000
      4          2.994040   1.000000
      5          6.210579   0.000000
      6          6.774314   0.000000
      7         14.594086   0.000000
      8         14.594087   0.000000
      9         16.856949   0.000000
     10         17.266388   0.000000
     11         17.899440   0.000000
     12         17.899440   0.000000
     13         19.360136   0.000000
     14         19.847937   0.000000
     15         22.552750   0.000000
     16         23.321532   0.000000
     17         23.321532   0.000000
     18         24.572126   0.000000
     19         27.654807   0.000000
     20         28.085861   0.000000
     21         28.085861   0.000000
     22         29.136393   0.000000
     23         30.199065   0.000000
     24         32.264433   0.000000
     25         34.915155   0.000000
     26         34.915155   0.000000
     27         36.460352   0.000000
     28         40.093645   0.000000
     29         40.093645   0.000000
     30         40.926286   0.000000
     31         41.318576   0.000000
     32         41.663120   0.000000
     33         44.379650   0.000000
     34         45.187500   0.000000
     35         45.187501   0.000000
     36         45.504856   0.000000
     37         45.920209   0.000000
     38         45.920209   0.000000
     39         47.392436   0.000000
     40         47.735040   0.000000
     41         49.654113   0.000000
     42         49.654113   0.000000
     43         52.669215   0.000000
     44         54.971888   0.000000
     45         54.971888   0.000000
     46         56.567841   0.000000
     47         58.667510   0.000000
     48         60.086415   0.000000

  0.4473684E+00  0.0000000E+00  0.4473684E+00  0.1000000E-01
      1         -2.833741   1.000000
      2         -1.210028   1.000000
      3          2.939433   1.000000
      4          2.939433   1.000000
      5          6.223900   0.000000
      6          6.596583   0.000000
      7         15.079065   0.000000
      8         15.079065   0.000000
      9         17.292536   0.000000
     10         17.402163   0.000000
     11         17.402163   0.000000
     12         17.758885   0.000000
     13         19.236934   0.000000
     14         19.287491   0.000000
     15         23.190893   0.000000
     16         23.986716   0.000000
     17         23.986716   0.000000
     18         24.766452   0.000000
     19         27.030685   0.000000
     20         27.216979   0.000000
     21         27.216979   0.000000
     22         28.367600   0.000000
     23         30.498005   0.000000
     24         31.903949   0.000000
     25         35.022456   0.000000
     26         35.022456   0.000000
     27         37.623278   0.000000
     28         39.881108   0.000000
     29         39.881108   0.000000
     30         40.871489   0.000000
     31         41.352400   0.000000
     32         41.572274   0.000000
     33         44.064968   0.000000
     34         44.611976   0.000000
     35         45.121016   0.000000
     36         45.121016   0.000000
     37         46.125825   0.000000
     38         46.125826   0.000000
     39         47.302548   0.000000
     40         47.474337   0.000000
     41         50.088997   0.000000
     42         50.088997   0.000000
     43         53.779635   0.000000
     44         54.865237   0.000000
     45         54.865237   0.000000
     46         57.446667   0.000000
     47         58.103155   0.000000
     48         60.067651   0.000000

  0.4736842E+00  0.0000000E+00  0.4736842E+00  0.1000000E-01
      1         -2.450070   1.000000
      2         -1.636836   1.000000
      3          2.906622   1.000000
      4          2.906623   1.000000
      5          6.268234   0.000000
      6          6.453581   0.000000
      7         15.524129   0.000000
      8         15.524129   0.000000
      9         16.945763   0.000000
     10         16.945763   0.000000
     11         17.753627   0.000000
     12         18.218454   0.000000
     13         18.751389   0.000000
     14         18.981882   0.000000
     15         23.833033   0.000000
     16         24.695144   0.000000
     17         24.695144   0.000000
     18         24.789166   0.000000
     19         26.390254   0.000000
     20         26.390254   0.000000
     21         26.764735   0.000000
     22         27.627934   0.000000
     23         30.842904   0.000000
     24         31.548810   0.000000
     25         35.094763   0.000000
     26         35.094763   0.000000
     27         38.758541   0.000000
     28         39.747742   0.000000
     29         39.747742   0.000000
     30         40.521068   0.000000
     31         41.390618   0.000000
     32         41.497741   0.000000
     33         43.825350   0.000000
     34         43.975759   0.000000
     35         45.081060   0.000000
     36         45.081060   0.000000
     37         46.226170   0.000000
     38         46.226170   0.000000
     39         47.265437   0.000000
     40         47.341526   0.000000
     41         50.455558   0.000000
     42         50.455558   0.000000
     43         54.702588   0.000000
     44         54.702588   0.000000
     45         54.905305   0.000000
     46         57.125297   0.000000
     47         58.302286   0.000000
     48         59.685502   0.000000

  0.5000000E+00  0.0000000E+00  0.5000000E+00  0.1000000E-01
      1         -2.050662   1.000000
      2         -2.050662   1.000000
      3          2.895677   1.000000
      4          2.895677   1.000000
      5          6.344451   0.000000
      6          6.344451   0.000000
      7         15.761834   0.000000
      8         15.761835   0.000000
      9         16.703554   0.000000
     10         16.703554   0.000000
     11         18.239998   0.000000
     12         18.239998   0.000000
     13         18.632625   0.000000
     14         18.632625   0.000000
     15         24.420494   0.000000
     16         24.420494   0.000000
     17         25.239371   0.000000
     18         25.239371   0.000000
     19         25.807127   0.000000
     20         25.807127   0.000000
     21         27.030657   0.000000
     22         27.030657   0.000000
     23         31.194864   0.000000
     24         31.194864   0.000000
     25         35.120072   0.000000
     26         35.120072   0.000000
     27         39.702180   0.000000
     28         39.702180   0.000000
     29         39.776677   0.000000
     30         39.776677   0.000000
     31         41.437959   0.000000
     32         41.437959   0.000000
     33         43.746176   0.000000
     34         43.746176   0.000000
     35         45.067728   0.000000
     36         45.067728   0.000000
     37         46.255538   0.000000
     38         46.255538   0.000000
     39         47.277546   0.000000
     40         47.277546   0.000000
     41         50.602296   0.000000
     42         50.602296   0.000000
     43         54.623618   0.000000
     44         54.623618   0.000000
     45         56.030504   0.000000
     46         56.030505   0.000000
     47         59.074818   0.000000
     48         59.075530   0.000000

  0.5000000E+00  0.0000000E+00  0.5000000E+00  0.1000000E-01
      1         -2.050662   1.000000
      2         -2.050662   1.000000
      3          2.895677   1.000000
      4          2.895677   1.000000
      5          6.344451   0.000000
      6          6.344451   0.000000
      7         15.761834   0.000000
      8         15.761835   0.000000
      9         16.703554   0.000000
     10         16.703554   0.000000
     11         18.239998   0.000000
     12         18.239998   0.000000
     13         18.632625   0.000000
     14         18.632625   0.000000
     15         24.420494   0.000000
     16         24.420494   0.000000
     17         25.239371   0.000000
     18         25.239371   0.000000
     19         25.807127   0.000000
     20         25.807127   0.000000
     21         27.030657   0.000000
     22         27.030657   0.000000
     23         31.194864   0.000000
     24         31.194864   0.000000
     25         35.120072   0.000000
     26         35.120072   0.000000
     27         39.702180   0.000000
     28         39.702180   0.000000
     29         39.776677   0.000000
     30         39.776677   0.000000
     31         41.437959   0.000000
     32         41.437959   0.000000
     33         43.746176   0.000000
     34         43.746176   0.000000
     35         45.067728   0.000000
     36         45.067728   0.000000
     37         46.255538   0.000000
     38         46.255538   0.000000
     39         47.277546   0.000000
     40         47.277546   0.000000
     41         50.602296   0.000000
     42         50.602296   0.000000
     43         54.623618   0.000000
     44         54.623618   0.000000
     45         56.030504   0.000000
     46         56.030506   0.000000
     47         59.074765   0.000000
     48         59.074898   0.000000

  0.5000000E+00  0.1315789E-01  0.5131579E+00  0.1000000E-01
      1         -2.049620   1.000000
      2         -2.049620   1.000000
      3          2.885996   1.000000
      4          2.885996   1.000000
      5          6.361734   0.000000
      6          6.361734   0.000000
      7         15.734837   0.000000
      8         15.734837   0.000000
      9         16.660050   0.000000
     10         16.660050   0.000000
     11         18.273574   0.000000
     12         18.273574   0.000000
     13         18.672496   0.000000
     14         18.672496   0.000000
     15         24.370447   0.000000
     16         24.370447   0.000000
     17         25.240495   0.000000
     18         25.240495   0.000000
     19         25.845030   0.000000
     20         25.845030   0.000000
     21         27.057404   0.000000
     22         27.057404   0.000000
     23         31.162131   0.000000
     24         31.162131   0.000000
     25         35.146116   0.000000
     26         35.146116   0.000000
     27         39.465866   0.000000
     28         39.465866   0.000000
     29         40.002690   0.000000
     30         40.002690   0.000000
     31         41.374811   0.000000
     32         41.374811   0.000000
     33         43.770446   0.000000
     34         43.770446   0.000000
     35         45.112112   0.000000
     36         45.112112   0.000000
     37         46.127334   0.000000
     38         46.127334   0.000000
     39         47.413873   0.000000
     40         47.413873   0.000000
     41         50.614918   0.000000
     42         50.614918   0.000000
     43         54.573116   0.000000
     44         54.573116   0.000000
     45         56.079454   0.000000
     46         56.079454   0.000000
     47         59.071725   0.000000
     48         59.071939   0.000000

  0.5000000E+00  0.2631579E-01  0.5263158E+00  0.1000000E-01
      1         -2.046516   1.000000
      2         -2.046516   1.000000
      3          2.857633   1.000000
      4          2.857633   1.000000
      5          6.412918   0.000000
      6          6.412918   0.000000
      7         15.648057   0.000000
      8         15.648058   0.000000
      9         16.559712   0.000000
     10         16.559712   0.000000
     11         18.335498   0.000000
     12         18.335498   0.000000
     13         18.806489   0.000000
     14         18.806489   0.000000
     15         24.242669   0.000000
     16         24.242669   0.000000
     17         25.225478   0.000000
     18         25.225478   0.000000
     19         25.957314   0.000000
     20         25.957314   0.000000
     21         27.134835   0.000000
     22         27.134835   0.000000
     23         31.067273   0.000000
     24         31.067273   0.000000
     25         35.220650   0.000000
     26         35.220650   0.000000
     27         39.189708   0.000000
     28         39.189708   0.000000
     29         40.248624   0.000000
     30         40.248624   0.000000
     31         41.195267   0.000000
     32         41.195267   0.000000
     33         43.841887   0.000000
     34         43.841887   0.000000
     35         45.227303   0.000000
     36         45.227303   0.000000
     37         45.868596   0.000000
     38         45.868596   0.000000
     39         47.701665   0.000000
     40         47.701666   0.000000
     41         50.656907   0.000000
     42         50.656907   0.000000
     43         54.442255   0.000000
     44         54.442255   0.000000
     45         56.204310   0.000000
     46         56.204310   0.000000
     47         59.061268   0.000000
     48         59.061653   0.000000

  0.5000000E+00  0.3947368E-01  0.5394737E+00  0.1000000E-01
      1         -2.041395   1.000000
      2         -2.041395   1.000000
      3          2.812495   1.000000
      4          2.812495   1.000000
      5          6.496593   0.000000
      6          6.496593   0.000000
      7         15.491646   0.000000
      8         15.491646   0.000000
      9         16.456338   0.000000
     10         16.456338   0.000000
     11         18.382439   0.000000
     12         18.382439   0.000000
     13         19.034838   0.000000
     14         19.034838   0.000000
     15         24.074853   0.000000
     16         24.074853   0.000000
     17         25.178651   0.000000
     18         25.178651   0.000000
     19         26.129105   0.000000
     20         26.129105   0.000000
     21         27.256487   0.000000
     22         27.256487   0.000000
     23         30.919973   0.000000
     24         30.919973   0.000000
     25         35.334110   0.000000
     26         35.334110   0.000000
     27         38.911113   0.000000
     28         38.911113   0.000000
     29         40.478866   0.000000
     30         40.478866   0.000000
     31         40.927395   0.000000
     32         40.927395   0.000000
     33         43.956160   0.000000
     34         43.956160   0.000000
     35         45.305531   0.000000
     36         45.305531   0.000000
     37         45.682124   0.000000
     38         45.682124   0.000000
     39         48.013280   0.000000
     40         48.013280   0.000000
     41         50.740975   0.000000
     42         50.740975   0.000000
     43         54.269773   0.000000
     44         54.269773   0.000000
     45         56.364243   0.000000
     46         56.364245   0.000000
     47         59.042152   0.000000
     48         59.043103   0.000000

  0.5000000E+00  0.5263158E-01  0.5526316E+00  0.1000000E-01
      1         -2.034402   1.000000
      2         -2.034402   1.000000
      3          2.753273   1.000000
      4          2.753273   1.000000
      5          6.609217   0.000000
      6          6.609217   0.000000
      7         15.267978   0.000000
      8         15.267978   0.000000
      9         16.379556   0.000000
     10         16.379556   0.000000
     11         18.412850   0.000000
     12         18.412850   0.000000
     13         19.324712   0.000000
     14         19.324712   0.000000
     15         23.889713   0.000000
     16         23.889713   0.000000
     17         25.106015   0.000000
     18         25.106015   0.000000
     19         26.334402   0.000000
     20         26.334402   0.000000
     21         27.414936   0.000000
     22         27.414936   0.000000
     23         30.730364   0.000000
     24         30.730364   0.000000
     25         35.473049   0.000000
     26         35.473049   0.000000
     27         38.636198   0.000000
     28         38.636198   0.000000
     29         40.530814   0.000000
     30         40.530814   0.000000
     31         40.749284   0.000000
     32         40.749284   0.000000
     33         44.100840   0.000000
     34         44.100840   0.000000
     35         45.127450   0.000000
     36         45.127450   0.000000
     37         45.810580   0.000000
     38         45.810580   0.000000
     39         48.288199   0.000000
     40         48.288201   0.000000
     41         50.885061   0.000000
     42         50.885061   0.000000
     43         54.082577   0.000000
     44         54.082577   0.000000
     45         56.521395   0.000000
     46         56.521398   0.000000
     47         58.998610   0.000000
     48         58.999103   0.000000

  0.5000000E+00  0.6578947E-01  0.5657895E+00  0.1000000E-01
      1         -2.025663   1.000000
      2         -2.025663   1.000000
      3          2.683155   1.000000
      4          2.683155   1.000000
      5          6.748156   0.000000
      6          6.748156   0.000000
      7         14.993963   0.000000
      8         14.993963   0.000000
      9         16.330646   0.000000
     10         16.330646   0.000000
     11         18.436878   0.000000
     12         18.436878   0.000000
     13         19.648347   0.000000
     14         19.648347   0.000000
     15         23.700966   0.000000
     16         23.700966   0.000000
     17         25.018441   0.000000
     18         25.018441   0.000000
     19         26.553005   0.000000
     20         26.553005   0.000000
     21         27.604572   0.000000
     22         27.604572   0.000000
     23         30.512216   0.000000
     24         30.512217   0.000000
     25         35.622339   0.000000
     26         35.622339   0.000000
     27         38.372763   0.000000
     28         38.372763   0.000000
     29         40.154426   0.000000
     30         40.154426   0.000000
     31         40.936906   0.000000
     32         40.936906   0.000000
     33         44.241532   0.000000
     34         44.241532   0.000000
     35         44.900347   0.000000
     36         44.900347   0.000000
     37         46.071496   0.000000
     38         46.071496   0.000000
     39         48.491570   0.000000
     40         48.491570   0.000000
     41         51.106991   0.000000
     42         51.106991   0.000000
     43         53.899439   0.000000
     44         53.899439   0.000000
     45         56.649932   0.000000
     46         56.649934   0.000000
     47         58.916756   0.000000
     48         58.920341   0.000000

  0.5000000E+00  0.7894737E-01  0.5789474E+00  0.1000000E-01
      1         -2.015366   1.000000
      2         -2.015366   1.000000
      3          2.605351   1.000000
      4          2.605351   1.000000
      5          6.910314   0.000000
      6          6.910314   0.000000
      7         14.688141   0.000000
      8         14.688141   0.000000
      9         16.301037   0.000000
     10         16.301037   0.000000
     11         18.459127   0.000000
     12         18.459127   0.000000
     13         19.990466   0.000000
     14         19.990466   0.000000
     15         23.515683   0.000000
     16         23.515683   0.000000
     17         24.923925   0.000000
     18         24.923925   0.000000
     19         26.769933   0.000000
     20         26.769933   0.000000
     21         27.820438   0.000000
     22         27.820438   0.000000
     23         30.279100   0.000000
     24         30.279100   0.000000
     25         35.765150   0.000000
     26         35.765150   0.000000
     27         38.130910   0.000000
     28         38.130910   0.000000
     29         39.719539   0.000000
     30         39.719539   0.000000
     31         41.138157   0.000000
     32         41.138157   0.000000
     33         44.260029   0.000000
     34         44.260029   0.000000
     35         44.825535   0.000000
     36         44.825535   0.000000
     37         46.367434   0.000000
     38         46.367434   0.000000
     39         48.609410   0.000000
     40         48.609410   0.000000
     41         51.410461   0.000000
     42         51.410461   0.000000
     43         53.732038   0.000000
     44         53.732038   0.000000
     45         56.728724   0.000000
     46         56.728733   0.000000
     47         58.769767   0.000000
     48         58.776425   0.000000

  0.5000000E+00  0.9210526E-01  0.5921053E+00  0.1000000E-01
      1         -2.003777   1.000000
      2         -2.003777   1.000000
      3          2.522832   1.000000
      4          2.522832   1.000000
      5          7.093005   0.000000
      6          7.093005   0.000000
      7         14.361808   0.000000
      8         14.361808   0.000000
      9         16.282227   0.000000
     10         16.282227   0.000000
     11         18.480970   0.000000
     12         18.480970   0.000000
     13         20.342362   0.000000
     14         20.342362   0.000000
     15         23.338932   0.000000
     16         23.338932   0.000000
     17         24.827477   0.000000
     18         24.827477   0.000000
     19         26.971180   0.000000
     20         26.971180   0.000000
     21         28.055462   0.000000
     22         28.055462   0.000000
     23         30.039058   0.000000
     24         30.039058   0.000000
     25         35.878817   0.000000
     26         35.878817   0.000000
     27         37.923472   0.000000
     28         37.923472   0.000000
     29         39.256162   0.000000
     30         39.256162   0.000000
     31         41.338484   0.000000
     32         41.338484   0.000000
     33         44.090538   0.000000
     34         44.090538   0.000000
     35         44.974083   0.000000
     36         44.974083   0.000000
     37         46.677061   0.000000
     38         46.677061   0.000000
     39         48.642982   0.000000
     40         48.642982   0.000000
     41         51.778640   0.000000
     42         51.778640   0.000000
     43         53.588236   0.000000
     44         53.588236   0.000000
     45         56.739253   0.000000
     46         56.739286   0.000000
     47         58.535518   0.000000
     48         58.537236   0.000000

  0.5000000E+00  0.1052632E+00  0.6052632E+00  0.1000000E-01
      1         -1.991110   1.000000
      2         -1.991110   1.000000
      3          2.438390   1.000000
      4          2.438390   1.000000
      5          7.293218   0.000000
      6          7.293218   0.000000
      7         14.025906   0.000000
      8         14.025906   0.000000
      9         16.271342   0.000000
     10         16.271342   0.000000
     11         18.503239   0.000000
     12         18.503239   0.000000
     13         20.697512   0.000000
     14         20.697512   0.000000
     15         23.173294   0.000000
     16         23.173294   0.000000
     17         24.732789   0.000000
     18         24.732789   0.000000
     19         27.146413   0.000000
     20         27.146413   0.000000
     21         28.297246   0.000000
     22         28.297246   0.000000
     23         29.824894   0.000000
     24         29.824894   0.000000
     25         35.946437   0.000000
     26         35.946437   0.000000
     27         37.769089   0.000000
     28         37.769089   0.000000
     29         38.770691   0.000000
     30         38.770691   0.000000
     31         41.535399   0.000000
     32         41.535399   0.000000
     33         43.864960   0.000000
     34         43.864960   0.000000
     35         45.207387   0.000000
     36         45.207387   0.000000
     37         46.991883   0.000000
     38         46.991883   0.000000
     39         48.625345   0.000000
     40         48.625346   0.000000
     41         52.178254   0.000000
     42         52.178254   0.000000
     43         53.482439   0.000000
     44         53.482439   0.000000
     45         56.682112   0.000000
     46         56.682191   0.000000
     47         58.217599   0.000000
     48         58.220082   0.000000

  0.5000000E+00  0.1184211E+00  0.6184211E+00  0.1000000E-01
      1         -1.977686   1.000000
      2         -1.977686   1.000000
      3          2.354374   1.000000
      4          2.354374   1.000000
      5          7.508988   0.000000
      6          7.508988   0.000000
      7         13.685220   0.000000
      8         13.685220   0.000000
      9         16.265429   0.000000
     10         16.265429   0.000000
     11         18.526916   0.000000
     12         18.526916   0.000000
     13         21.051916   0.000000
     14         21.051916   0.000000
     15         23.023750   0.000000
     16         23.023750   0.000000
     17         24.642416   0.000000
     18         24.642416   0.000000
     19         27.280327   0.000000
     20         27.280327   0.000000
     21         28.520339   0.000000
     22         28.520339   0.000000
     23         29.684600   0.000000
     24         29.684600   0.000000
     25         35.948132   0.000000
     26         35.948132   0.000000
     27         37.677660   0.000000
     28         37.677660   0.000000
     29         38.286753   0.000000
     30         38.286753   0.000000
     31         41.732961   0.000000
     32         41.732961   0.000000
     33         43.638436   0.000000
     34         43.638436   0.000000
     35         45.461170   0.000000
     36         45.461170   0.000000
     37         47.301973   0.000000
     38         47.301973   0.000000
     39         48.580449   0.000000
     40         48.580449   0.000000
     41         52.555776   0.000000
     42         52.555776   0.000000
     43         53.446883   0.000000
     44         53.446883   0.000000
     45         56.563930   0.000000
     46         56.563993   0.000000
     47         57.840797   0.000000
     48         57.843658   0.000000

  0.5000000E+00  0.1315789E+00  0.6315789E+00  0.1000000E-01
      1         -1.963828   1.000000
      2         -1.963828   1.000000
      3          2.272788   1.000000
      4          2.272789   1.000000
      5          7.738226   0.000000
      6          7.738226   0.000000
      7         13.342134   0.000000
      8         13.342134   0.000000
      9         16.262002   0.000000
     10         16.262002   0.000000
     11         18.550986   0.000000
     12         18.550986   0.000000
     13         21.398996   0.000000
     14         21.398996   0.000000
     15         22.896252   0.000000
     16         22.896252   0.000000
     17         24.558207   0.000000
     18         24.558207   0.000000
     19         27.349934   0.000000
     20         27.349934   0.000000
     21         28.675533   0.000000
     22         28.675533   0.000000
     23         29.676400   0.000000
     24         29.676400   0.000000
     25         35.878162   0.000000
     26         35.878162   0.000000
     27         37.594163   0.000000
     28         37.594163   0.000000
     29         37.861886   0.000000
     30         37.861886   0.000000
     31         41.933380   0.000000
     32         41.933380   0.000000
     33         43.424927   0.000000
     34         43.424927   0.000000
     35         45.709541   0.000000
     36         45.709541   0.000000
     37         47.594484   0.000000
     38         47.594484   0.000000
     39         48.542435   0.000000
     40         48.542435   0.000000
     41         52.814185   0.000000
     42         52.814185   0.000000
     43         53.549604   0.000000
     44         53.549605   0.000000
     45         56.405475   0.000000
     46         56.405479   0.000000
     47         57.432050   0.000000
     48         57.432339   0.000000

  0.5000000E+00  0.1447368E+00  0.6447368E+00  0.1000000E-01
      1         -1.949962   1.000000
      2         -1.949962   1.000000
      3          2.195443   1.000000
      4          2.195443   1.000000
      5          7.979571   0.000000
      6          7.979571   0.000000
      7         12.999037   0.000000
      8         12.999037   0.000000
      9         16.260710   0.000000
     10         16.260710   0.000000
     11         18.575249   0.000000
     12         18.575249   0.000000
     13         21.719594   0.000000
     14         21.719594   0.000000
     15         22.807662   0.000000
     16         22.807662   0.000000
     17         24.480661   0.000000
     18         24.480661   0.000000
     19         27.332580   0.000000
     20         27.332580   0.000000
     21         28.752824   0.000000
     22         28.752824   0.000000
     23         29.839353   0.000000
     24         29.839353   0.000000
     25         35.749748   0.000000
     26         35.749748   0.000000
     27         37.212948   0.000000
     28         37.212948   0.000000
     29         37.789967   0.000000
     30         37.789967   0.000000
     31         42.130957   0.000000
     32         42.130957   0.000000
     33         43.231844   0.000000
     34         43.231844   0.000000
     35         45.924708   0.000000
     36         45.924708   0.000000
     37         47.839045   0.000000
     38         47.839045   0.000000
     39         48.556953   0.000000
     40         48.556953   0.000000
     41         52.903409   0.000000
     42         52.903409   0.000000
     43         53.798309   0.000000
     44         53.798309   0.000000
     45         56.243921   0.000000
     46         56.243932   0.000000
     47         57.014093   0.000000
     48         57.014122   0.000000

  0.5000000E+00  0.1578947E+00  0.6578947E+00  0.1000000E-01
      1         -1.936450   1.000000
      2         -1.936450   1.000000
      3          2.123774   1.000000
      4          2.123774   1.000000
      5          8.231269   0.000000
      6          8.231269   0.000000
      7         12.656163   0.000000
      8         12.656163   0.000000
      9         16.259869   0.000000
     10         16.259869   0.000000
     11         18.599004   0.000000
     12         18.599004   0.000000
     13         21.975778   0.000000
     14         21.975778   0.000000
     15         22.793662   0.000000
     16         22.793662   0.000000
     17         24.409823   0.000000
     18         24.409823   0.000000
     19         27.217450   0.000000
     20         27.217450   0.000000
     21         28.805243   0.000000
     22         28.805243   0.000000
     23         30.124403   0.000000
     24         30.124403   0.000000
     25         35.583205   0.000000
     26         35.583205   0.000000
     27         36.726321   0.000000
     28         36.726321   0.000000
     29         37.859652   0.000000
     30         37.859652   0.000000
     31         42.320086   0.000000
     32         42.320086   0.000000
     33         43.066138   0.000000
     34         43.066138   0.000000
     35         46.078452   0.000000
     36         46.078453   0.000000
     37         48.004760   0.000000
     38         48.004762   0.000000
     39         48.676245   0.000000
     40         48.676248   0.000000
     41         52.912374   0.000000
     42         52.912374   0.000000
     43         54.049051   0.000000
     44         54.049052   0.000000
     45         56.124407   0.000000
     46         56.124486   0.000000
     47         56.601108   0.000000
     48         56.601176   0.000000

  0.5000000E+00  0.1710526E+00  0.6710526E+00  0.1000000E-01
      1         -1.923680   1.000000
      2         -1.923680   1.000000
      3          2.059135   1.000000
      4          2.059135   1.000000
      5          8.492068   0.000000
      6          8.492068   0.000000
      7         12.317862   0.000000
      8         12.317862   0.000000
      9         16.260472   0.000000
     10         16.260472   0.000000
     11         18.621692   0.000000
     12         18.621692   0.000000
     13         22.108675   0.000000
     14         22.108675   0.000000
     15         22.917330   0.000000
     16         22.917330   0.000000
     17         24.349597   0.000000
     18         24.349597   0.000000
     19         27.020560   0.000000
     20         27.020560   0.000000
     21         28.873367   0.000000
     22         28.873367   0.000000
     23         30.475423   0.000000
     24         30.475423   0.000000
     25         35.394387   0.000000
     26         35.394387   0.000000
     27         36.241352   0.000000
     28         36.241352   0.000000
     29         37.956268   0.000000
     30         37.956268   0.000000
     31         42.475833   0.000000
     32         42.475833   0.000000
     33         42.955953   0.000000
     34         42.955954   0.000000
     35         46.159847   0.000000
     36         46.159847   0.000000
     37         48.125813   0.000000
     38         48.125813   0.000000
     39         48.893346   0.000000
     40         48.893347   0.000000
     41         52.913168   0.000000
     42         52.913168   0.000000
     43         54.181876   0.000000
     44         54.181877   0.000000
     45         56.025165   0.000000
     46         56.025320   0.000000
     47         56.298807   0.000000
     48         56.298838   0.000000

  0.5000000E+00  0.1842105E+00  0.6842105E+00  0.1000000E-01
      1         -1.912036   1.000000
      2         -1.912036   1.000000
      3          2.002607   1.000000
      4          2.002607   1.000000
      5          8.760764   0.000000
      6          8.760764   0.000000
      7         11.984566   0.000000
      8         11.984566   0.000000
      9         16.261470   0.000000
     10         16.261471   0.000000
     11         18.644770   0.000000
     12         18.644770   0.000000
     13         22.126170   0.000000
     14         22.126170   0.000000
     15         23.168075   0.000000
     16         23.168075   0.000000
     17         24.300441   0.000000
     18         24.300441   0.000000
     19         26.768379   0.000000
     20         26.768379   0.000000
     21         28.957238   0.000000
     22         28.957238   0.000000
     23         30.866186   0.000000
     24         30.866186   0.000000
     25         35.177185   0.000000
     26         35.177185   0.000000
     27         35.790166   0.000000
     28         35.790166   0.000000
     29         38.057071   0.000000
     30         38.057071   0.000000
     31         42.533164   0.000000
     32         42.533164   0.000000
     33         42.964114   0.000000
     34         42.964114   0.000000
     35         46.162543   0.000000
     36         46.162543   0.000000
     37         48.254332   0.000000
     38         48.254332   0.000000
     39         49.158111   0.000000
     40         49.158111   0.000000
     41         52.918198   0.000000
     42         52.918198   0.000000
     43         54.170368   0.000000
     44         54.170368   0.000000
     45         55.705823   0.000000
     46         55.705844   0.000000
     47         56.363582   0.000000
     48         56.363600   0.000000

  0.5000000E+00  0.1973684E+00  0.6973684E+00  0.1000000E-01
      1         -1.901924   1.000000
      2         -1.901924   1.000000
      3          1.955062   1.000000
      4          1.955062   1.000000
      5          9.034160   0.000000
      6          9.034160   0.000000
      7         11.657580   0.000000
      8         11.657580   0.000000
      9         16.262561   0.000000
     10         16.262561   0.000000
     11         18.662004   0.000000
     12         18.662004   0.000000
     13         22.095761   0.000000
     14         22.095761   0.000000
     15         23.470292   0.000000
     16         23.470292   0.000000
     17         24.264200   0.000000
     18         24.264200   0.000000
     19         26.481136   0.000000
     20         26.481136   0.000000
     21         29.043979   0.000000
     22         29.043979   0.000000
     23         31.279501   0.000000
     24         31.279501   0.000000
     25         34.886536   0.000000
     26         34.886536   0.000000
     27         35.425001   0.000000
     28         35.425001   0.000000
     29         38.149991   0.000000
     30         38.149991   0.000000
     31         42.483452   0.000000
     32         42.483452   0.000000
     33         43.089428   0.000000
     34         43.089428   0.000000
     35         46.099624   0.000000
     36         46.099624   0.000000
     37         48.400663   0.000000
     38         48.400663   0.000000
     39         49.409610   0.000000
     40         49.409610   0.000000
     41         52.927092   0.000000
     42         52.927092   0.000000
     43         54.063284   0.000000
     44         54.063285   0.000000
     45         55.331657   0.000000
     46         55.331659   0.000000
     47         56.572133   0.000000
     48         56.572257   0.000000

  0.5000000E+00  0.2105263E+00  0.7105263E+00  0.1000000E-01
      1         -1.893665   1.000000
      2         -1.893665   1.000000
      3          1.917291   1.000000
      4          1.917291   1.000000
      5          9.309148   0.000000
      6          9.309148   0.000000
      7         11.341123   0.000000
      8         11.341123   0.000000
      9         16.263588   0.000000
     10         16.263588   0.000000
     11         18.677027   0.000000
     12         18.677027   0.000000
     13         22.057030   0.000000
     14         22.057030   0.000000
     15         23.773653   0.000000
     16         23.773653   0.000000
     17         24.251113   0.000000
     18         24.251113   0.000000
     19         26.180549   0.000000
     20         26.180549   0.000000
     21         29.122566   0.000000
     22         29.122566   0.000000
     23         31.711028   0.000000
     24         31.711028   0.000000
     25         34.490247   0.000000
     26         34.490247   0.000000
     27         35.197396   0.000000
     28         35.197396   0.000000
     29         38.228826   0.000000
     30         38.228826   0.000000
     31         42.411296   0.000000
     32         42.411296   0.000000
     33         43.243891   0.000000
     34         43.243891   0.000000
     35         46.002794   0.000000
     36         46.002794   0.000000
     37         48.550380   0.000000
     38         48.550381   0.000000
     39         49.641835   0.000000
     40         49.641835   0.000000
     41         52.930016   0.000000
     42         52.930016   0.000000
     43         53.955443   0.000000
     44         53.955445   0.000000
     45         54.976932   0.000000
     46         54.976937   0.000000
     47         56.792539   0.000000
     48         56.792813   0.000000

  0.5000000E+00  0.2236842E+00  0.7236842E+00  0.1000000E-01
      1         -1.887544   1.000000
      2         -1.887544   1.000000
      3          1.889883   1.000000
      4          1.889883   1.000000
      5          9.577249   0.000000
      6          9.577249   0.000000
      7         11.043444   0.000000
      8         11.043444   0.000000
      9         16.264418   0.000000
     10         16.264418   0.000000
     11         18.688231   0.000000
     12         18.688231   0.000000
     13         22.024132   0.000000
     14         22.024132   0.000000
     15         24.007503   0.000000
     16         24.007503   0.000000
     17         24.306240   0.000000
     18         24.306240   0.000000
     19         25.884803   0.000000
     20         25.884803   0.000000
     21         29.184585   0.000000
     22         29.184585   0.000000
     23         32.156442   0.000000
     24         32.156442   0.000000
     25         34.036625   0.000000
     26         34.036625   0.000000
     27         35.064302   0.000000
     28         35.064302   0.000000
     29         38.288728   0.000000
     30         38.288728   0.000000
     31         42.350448   0.000000
     32         42.350448   0.000000
     33         43.381267   0.000000
     34         43.381267   0.000000
     35         45.902696   0.000000
     36         45.902696   0.000000
     37         48.678547   0.000000
     38         48.678548   0.000000
     39         49.831166   0.000000
     40         49.831166   0.000000
     41         52.914555   0.000000
     42         52.914555   0.000000
     43         53.910856   0.000000
     44         53.910856   0.000000
     45         54.655836   0.000000
     46         54.655837   0.000000
     47         56.972541   0.000000
     48         56.972593   0.000000

  0.5000000E+00  0.2368421E+00  0.7368421E+00  0.1000000E-01
      1         -1.883776   1.000000
      2         -1.883776   1.000000
      3          1.873281   1.000000
      4          1.873281   1.000000
      5          9.812488   0.000000
      6          9.812488   0.000000
      7         10.790718   0.000000
      8         10.790718   0.000000
      9         16.265669   0.000000
     10         16.265669   0.000000
     11         18.695700   0.000000
     12         18.695700   0.000000
     13         22.003654   0.000000
     14         22.003654   0.000000
     15         24.086644   0.000000
     16         24.086644   0.000000
     17         24.480976   0.000000
     18         24.480976   0.000000
     19         25.631307   0.000000
     20         25.631307   0.000000
     21         29.224448   0.000000
     22         29.224448   0.000000
     23         32.613500   0.000000
     24         32.613500   0.000000
     25         33.569067   0.000000
     26         33.569067   0.000000
     27         34.991343   0.000000
     28         34.991343   0.000000
     29         38.335286   0.000000
     30         38.335286   0.000000
     31         42.312732   0.000000
     32         42.312732   0.000000
     33         43.477048   0.000000
     34         43.477048   0.000000
     35         45.828774   0.000000
     36         45.828774   0.000000
     37         48.764884   0.000000
     38         48.764884   0.000000
     39         49.957790   0.000000
     40         49.957790   0.000000
     41         52.887026   0.000000
     42         52.887026   0.000000
     43         53.957300   0.000000
     44         53.957300   0.000000
     45         54.386331   0.000000
     46         54.386331   0.000000
     47         57.087620   0.000000
     48         57.087629   0.000000

  0.5000000E+00  0.2500000E+00  0.7500000E+00  0.1000000E-01
      1         -1.882482   1.000000
      2         -1.882482   1.000000
      3          1.867729   1.000000
      4          1.867730   1.000000
      5          9.926105   0.000000
      6          9.926105   0.000000
      7         10.672586   0.000000
      8         10.672586   0.000000
      9         16.266695   0.000000
     10         16.266695   0.000000
     11         18.698842   0.000000
     12         18.698842   0.000000
     13         21.996969   0.000000
     14         21.996969   0.000000
     15         24.098048   0.000000
     16         24.098048   0.000000
     17         24.584961   0.000000
     18         24.584961   0.000000
     19         25.523197   0.000000
     20         25.523197   0.000000
     21         29.241478   0.000000
     22         29.241478   0.000000
     23         33.007839   0.000000
     24         33.007839   0.000000
     25         33.171455   0.000000
     26         33.171455   0.000000
     27         34.967656   0.000000
     28         34.967656   0.000000
     29         38.357528   0.000000
     30         38.357528   0.000000
     31         42.302039   0.000000
     32         42.302039   0.000000
     33         43.515144   0.000000
     34         43.515144   0.000000
     35         45.814947   0.000000
     36         45.814947   0.000000
     37         48.796945   0.000000
     38         48.796945   0.000000
     39         50.008380   0.000000
     40         50.008380   0.000000
     41         52.875096   0.000000
     42         52.875096   0.000000
     43         54.033060   0.000000
     44         54.033060   0.000000
     45         54.240726   0.000000
     46         54.240727   0.000000
     47         57.131392   0.000000
     48         57.131560   0.000000

  0.5000000E+00  0.2500000E+00  0.7500000E+00  0.1000000E-01
      1         -1.882482   1.000000
      2         -1.882482   1.000000
      3          1.867729   1.000000
      4          1.867730   1.000000
      5          9.926105   0.000000
      6          9.926105   0.000000
      7         10.672586   0.000000
      8         10.672586   0.000000
      9         16.266695   0.000000
     10         16.266695   0.000000
     11         18.698842   0.000000
     12         18.698842   0.000000
     13         21.996969   0.000000
     14         21.996969   0.000000
     15         24.098048   0.000000
     16         24.098048   0.000000
     17         24.584961   0.000000
     18         24.584961   0.000000
     19         25.523197   0.000000
     20         25.523197   0.000000
     21         29.241478   0.000000
     22         29.241478   0.000000
     23         33.007839   0.000000
     24         33.007839   0.000000
     25         33.171455   0.000000
     26         33.171455   0.000000
     27         34.967656   0.000000
     28         34.967656   0.000000
     29         38.357528   0.000000
     30         38.357528   0.000000
     31         42.302039   0.000000
     32         42.302039   0.000000
     33         43.515144   0.000000
     34         43.515144   0.000000
     35         45.814947   0.000000
     36         45.814947   0.000000
     37         48.796945   0.000000
     38         48.796945   0.000000
     39         50.008380   0.000000
     40         50.008380   0.000000
     41         52.875096   0.000000
     42         52.875096   0.000000
     43         54.033060   0.000000
     44         54.033060   0.000000
     45         54.240726   0.000000
     46         54.240726   0.000000
     47         57.131382   0.000000
     48         57.131446   0.000000

  0.4934211E+00  0.2565789E+00  0.7500000E+00  0.1000000E-01
      1         -1.941179   1.000000
      2         -1.824896   1.000000
      3          1.822778   1.000000
      4          1.918183   1.000000
      5          9.821069   0.000000
      6          9.961153   0.000000
      7         10.683699   0.000000
      8         10.736148   0.000000
      9         16.151589   0.000000
     10         16.369042   0.000000
     11         18.588335   0.000000
     12         18.817513   0.000000
     13         21.888299   0.000000
     14         22.099776   0.000000
     15         23.976503   0.000000
     16         24.227078   0.000000
     17         24.471321   0.000000
     18         24.637173   0.000000
     19         25.449019   0.000000
     20         25.652997   0.000000
     21         29.128013   0.000000
     22         29.347274   0.000000
     23         32.822094   0.000000
     24         32.855788   0.000000
     25         33.177977   0.000000
     26         33.507702   0.000000
     27         34.861786   0.000000
     28         35.091696   0.000000
     29         38.312742   0.000000
     30         38.371299   0.000000
     31         42.168236   0.000000
     32         42.431290   0.000000
     33         43.466382   0.000000
     34         43.552143   0.000000
     35         45.803284   0.000000
     36         45.832574   0.000000
     37         48.758363   0.000000
     38         48.812757   0.000000
     39         49.893168   0.000000
     40         50.094805   0.000000
     41         52.767433   0.000000
     42         52.939888   0.000000
     43         53.911870   0.000000
     44         54.125844   0.000000
     45         54.289015   0.000000
     46         54.312072   0.000000
     47         57.015806   0.000000
     48         57.228962   0.000000

  0.4868421E+00  0.2631579E+00  0.7500000E+00  0.1000000E-01
      1         -1.996761   1.000000
      2         -1.772596   1.000000
      3          1.779924   1.000000
      4          1.977450   1.000000
      5          9.636429   0.000000
      6          9.977489   0.000000
      7         10.782912   0.000000
      8         10.823116   0.000000
      9         16.029236   0.000000
     10         16.450552   0.000000
     11         18.493266   0.000000
     12         18.942291   0.000000
     13         21.782612   0.000000
     14         22.186764   0.000000
     15         23.867994   0.000000
     16         24.317072   0.000000
     17         24.368729   0.000000
     18         24.618802   0.000000
     19         25.401172   0.000000
     20         25.864295   0.000000
     21         29.015185   0.000000
     22         29.444392   0.000000
     23         32.587235   0.000000
     24         32.645198   0.000000
     25         33.235282   0.000000
     26         33.912247   0.000000
     27         34.767748   0.000000
     28         35.240255   0.000000
     29         38.252882   0.000000
     30         38.349821   0.000000
     31         42.025045   0.000000
     32         42.563284   0.000000
     33         43.431600   0.000000
     34         43.564713   0.000000
     35         45.776222   0.000000
     36         45.915785   0.000000
     37         48.707902   0.000000
     38         48.795306   0.000000
     39         49.757951   0.000000
     40         50.163111   0.000000
     41         52.645042   0.000000
     42         52.958315   0.000000
     43         53.820772   0.000000
     44         54.264283   0.000000
     45         54.361181   0.000000
     46         54.460999   0.000000
     47         56.889608   0.000000
     48         57.314526   0.000000

  0.4802632E+00  0.2697368E+00  0.7500000E+00  0.1000000E-01
      1         -2.049227   1.000000
      2         -1.725536   1.000000
      3          1.739223   1.000000
      4          2.045210   1.000000
      5          9.418741   0.000000
      6          9.978750   0.000000
      7         10.923269   0.000000
      8         10.928898   0.000000
      9         15.901968   0.000000
     10         16.504152   0.000000
     11         18.423268   0.000000
     12         19.071667   0.000000
     13         21.682360   0.000000
     14         22.254327   0.000000
     15         23.778854   0.000000
     16         24.145967   0.000000
     17         24.515924   0.000000
     18         24.566007   0.000000
     19         25.372442   0.000000
     20         26.114591   0.000000
     21         28.900089   0.000000
     22         29.528856   0.000000
     23         32.350562   0.000000
     24         32.442889   0.000000
     25         33.305418   0.000000
     26         34.305213   0.000000
     27         34.701495   0.000000
     28         35.410321   0.000000
     29         38.198622   0.000000
     30         38.299394   0.000000
     31         41.880275   0.000000
     32         42.681843   0.000000
     33         43.404467   0.000000
     34         43.571228   0.000000
     35         45.728094   0.000000
     36         46.044867   0.000000
     37         48.648347   0.000000
     38         48.731301   0.000000
     39         49.611702   0.000000
     40         50.208948   0.000000
     41         52.530814   0.000000
     42         52.937207   0.000000
     43         53.801714   0.000000
     44         54.395901   0.000000
     45         54.486081   0.000000
     46         54.634164   0.000000
     47         56.751154   0.000000
     48         57.383149   0.000000

  0.4736842E+00  0.2763158E+00  0.7500000E+00  0.1000000E-01
      1         -2.098550   1.000000
      2         -1.683576   1.000000
      3          1.700750   1.000000
      4          2.120938   1.000000
      5          9.189934   0.000000
      6          9.971334   0.000000
      7         11.048996   0.000000
      8         11.082988   0.000000
      9         15.769949   0.000000
     10         16.521906   0.000000
     11         18.385884   0.000000
     12         19.205556   0.000000
     13         21.587885   0.000000
     14         22.297417   0.000000
     15         23.710769   0.000000
     16         23.956197   0.000000
     17         24.503050   0.000000
     18         24.670035   0.000000
     19         25.361508   0.000000
     20         26.379979   0.000000
     21         28.785238   0.000000
     22         29.599061   0.000000
     23         32.118592   0.000000
     24         32.253553   0.000000
     25         33.381915   0.000000
     26         34.513889   0.000000
     27         34.832712   0.000000
     28         35.598560   0.000000
     29         38.143478   0.000000
     30         38.217316   0.000000
     31         41.737323   0.000000
     32         42.764966   0.000000
     33         43.379745   0.000000
     34         43.603125   0.000000
     35         45.664702   0.000000
     36         46.208497   0.000000
     37         48.585308   0.000000
     38         48.607553   0.000000
     39         49.478043   0.000000
     40         50.234203   0.000000
     41         52.438913   0.000000
     42         52.900878   0.000000
     43         53.833963   0.000000
     44         54.498645   0.000000
     45         54.675333   0.000000
     46         54.822718   0.000000
     47         56.602238   0.000000
     48         57.441587   0.000000

  0.4671053E+00  0.2828947E+00  0.7500000E+00  0.1000000E-01
      1         -2.144731   1.000000
      2         -1.646509   1.000000
      3          1.664543   1.000000
      4          2.203977   1.000000
      5          8.958936   0.000000
      6          9.958046   0.000000
      7         11.179351   0.000000
      8         11.253535   0.000000
      9         15.633655   0.000000
     10         16.498616   0.000000
     11         18.386774   0.000000
     12         19.342665   0.000000
     13         21.499678   0.000000
     14         22.313302   0.000000
     15         23.659719   0.000000
     16         23.754879   0.000000
     17         24.447171   0.000000
     18         24.827021   0.000000
     19         25.362223   0.000000
     20         26.647806   0.000000
     21         28.668930   0.000000
     22         29.652153   0.000000
     23         31.894582   0.000000
     24         32.078510   0.000000
     25         33.463700   0.000000
     26         34.479574   0.000000
     27         35.218994   0.000000
     28         35.801275   0.000000
     29         38.087751   0.000000
     30         38.106423   0.000000
     31         41.598371   0.000000
     32         42.791847   0.000000
     33         43.351852   0.000000
     34         43.686087   0.000000
     35         45.581709   0.000000
     36         46.389933   0.000000
     37         48.420345   0.000000
     38         48.523879   0.000000
     39         49.371120   0.000000
     40         50.236594   0.000000
     41         52.372607   0.000000
     42         52.869335   0.000000
     43         53.888722   0.000000
     44         54.604151   0.000000
     45         54.888819   0.000000
     46         55.022190   0.000000
     47         56.444323   0.000000
     48         57.486381   0.000000

  0.4605263E+00  0.2894737E+00  0.7500000E+00  0.1000000E-01
      1         -2.187762   1.000000
      2         -1.614062   1.000000
      3          1.630651   1.000000
      4          2.293513   1.000000
      5          8.729990   0.000000
      6          9.941435   0.000000
      7         11.317272   0.000000
      8         11.431173   0.000000
      9         15.493588   0.000000
     10         16.434043   0.000000
     11         18.426853   0.000000
     12         19.482344   0.000000
     13         21.417921   0.000000
     14         22.302882   0.000000
     15         23.546252   0.000000
     16         23.616056   0.000000
     17         24.412378   0.000000
     18         24.981341   0.000000
     19         25.375886   0.000000
     20         26.910654   0.000000
     21         28.550944   0.000000
     22         29.685426   0.000000
     23         31.682255   0.000000
     24         31.919781   0.000000
     25         33.550210   0.000000
     26         34.425760   0.000000
     27         35.636023   0.000000
     28         36.013751   0.000000
     29         37.970648   0.000000
     30         38.034687   0.000000
     31         41.465649   0.000000
     32         42.765340   0.000000
     33         43.315416   0.000000
     34         43.821679   0.000000
     35         45.480859   0.000000
     36         46.567761   0.000000
     37         48.192239   0.000000
     38         48.468995   0.000000
     39         49.290463   0.000000
     40         50.217677   0.000000
     41         52.331683   0.000000
     42         52.849938   0.000000
     43         53.948792   0.000000
     44         54.719107   0.000000
     45         55.114314   0.000000
     46         55.229129   0.000000
     47         56.279320   0.000000
     48         57.517760   0.000000

  0.4539474E+00  0.2960526E+00  0.7500000E+00  0.1000000E-01
      1         -2.227634   1.000000
      2         -1.585906   1.000000
      3          1.599116   1.000000
      4          2.388584   1.000000
      5          8.505570   0.000000
      6          9.923208   0.000000
      7         11.460895   0.000000
      8         11.614033   0.000000
      9         15.350172   0.000000
     10         16.332722   0.000000
     11         18.502217   0.000000
     12         19.624020   0.000000
     13         21.342580   0.000000
     14         22.270283   0.000000
     15         23.333214   0.000000
     16         23.567290   0.000000
     17         24.409712   0.000000
     18         25.119427   0.000000
     19         25.413240   0.000000
     20         27.163133   0.000000
     21         28.431284   0.000000
     22         29.695672   0.000000
     23         31.485816   0.000000
     24         31.779338   0.000000
     25         33.640898   0.000000
     26         34.378193   0.000000
     27         36.056305   0.000000
     28         36.229274   0.000000
     29         37.815077   0.000000
     30         37.989761   0.000000
     31         41.340768   0.000000
     32         42.705072   0.000000
     33         43.264694   0.000000
     34         43.992311   0.000000
     35         45.366149   0.000000
     36         46.702055   0.000000
     37         47.975391   0.000000
     38         48.424510   0.000000
     39         49.226949   0.000000
     40         50.180170   0.000000
     41         52.313317   0.000000
     42         52.841220   0.000000
     43         54.004908   0.000000
     44         54.843552   0.000000
     45         55.346654   0.000000
     46         55.438232   0.000000
     47         56.111799   0.000000
     48         57.537667   0.000000

  0.4473684E+00  0.3026316E+00  0.7500000E+00  0.1000000E-01
      1         -2.264335   1.000000
      2         -1.561651   1.000000
      3          1.569977   1.000000
      4          2.488090   1.000000
      5          8.287156   0.000000
      6          9.904583   0.000000
      7         11.608967   0.000000
      8         11.801356   0.000000
      9         15.204158   0.000000
     10         16.202242   0.000000
     11         18.606787   0.000000
     12         19.767266   0.000000
     13         21.273387   0.000000
     14         22.221149   0.000000
     15         23.116630   0.000000
     16         23.504706   0.000000
     17         24.443881   0.000000
     18         25.215184   0.000000
     19         25.498705   0.000000
     20         27.404844   0.000000
     21         28.310593   0.000000
     22         29.680451   0.000000
     23         31.310065   0.000000
     24         31.659396   0.000000
     25         33.735204   0.000000
     26         34.342090   0.000000
     27         36.438825   0.000000
     28         36.472055   0.000000
     29         37.649230   0.000000
     30         37.962758   0.000000
     31         41.225037   0.000000
     32         42.629181   0.000000
     33         43.191248   0.000000
     34         44.179930   0.000000
     35         45.243653   0.000000
     36         46.718026   0.000000
     37         47.858365   0.000000
     38         48.392065   0.000000
     39         49.173405   0.000000
     40         50.126922   0.000000
     41         52.314184   0.000000
     42         52.837608   0.000000
     43         54.054905   0.000000
     44         54.976290   0.000000
     45         55.581454   0.000000
     46         55.628083   0.000000
     47         55.963441   0.000000
     48         57.545203   0.000000

  0.4407895E+00  0.3092105E+00  0.7500000E+00  0.1000000E-01
      1         -2.297871   1.000000
      2         -1.541011   1.000000
      3          1.543262   1.000000
      4          2.590634   1.000000
      5          8.076882   0.000000
      6          9.886177   0.000000
      7         11.760364   0.000000
      8         11.991883   0.000000
      9         15.055149   0.000000
     10         16.048440   0.000000
     11         18.733317   0.000000
     12         19.911339   0.000000
     13         21.210186   0.000000
     14         22.160853   0.000000
     15         22.900480   0.000000
     16         23.426421   0.000000
     17         24.511592   0.000000
     18         25.261867   0.000000
     19         25.637013   0.000000
     20         27.619995   0.000000
     21         28.191679   0.000000
     22         29.633797   0.000000
     23         31.159415   0.000000
     24         31.560971   0.000000
     25         33.831999   0.000000
     26         34.317794   0.000000
     27         36.624056   0.000000
     28         36.849033   0.000000
     29         37.503515   0.000000
     30         37.967984   0.000000
     31         41.118844   0.000000
     32         42.548400   0.000000
     33         43.093129   0.000000
     34         44.371060   0.000000
     35         45.121617   0.000000
     36         46.555319   0.000000
     37         47.906694   0.000000
     38         48.374327   0.000000
     39         49.126119   0.000000
     40         50.062248   0.000000
     41         52.328402   0.000000
     42         52.830554   0.000000
     43         54.092390   0.000000
     44         55.115087   0.000000
     45         55.655544   0.000000
     46         55.814730   0.000000
     47         55.978484   0.000000
     48         57.549352   0.000000

  0.4342105E+00  0.3157895E+00  0.7500000E+00  0.1000000E-01
      1         -2.328238   1.000000
      2         -1.523663   1.000000
      3          1.519008   1.000000
      4          2.694685   1.000000
      5          7.875580   0.000000
      6          9.868430   0.000000
      7         11.914298   0.000000
      8         12.185117   0.000000
      9         14.903899   0.000000
     10         15.876844   0.000000
     11         18.875786   0.000000
     12         20.056985   0.000000
     13         21.152168   0.000000
     14         22.093525   0.000000
     15         22.683118   0.000000
     16         23.336214   0.000000
     17         24.605037   0.000000
     18         25.283190   0.000000
     19         25.801918   0.000000
     20         27.796026   0.000000
     21         28.086441   0.000000
     22         29.555372   0.000000
     23         31.034118   0.000000
     24         31.484874   0.000000
     25         33.932049   0.000000
     26         34.307866   0.000000
     27         36.765439   0.000000
     28         37.015588   0.000000
     29         37.552441   0.000000
     30         38.025233   0.000000
     31         41.022127   0.000000
     32         42.468085   0.000000
     33         42.961166   0.000000
     34         44.556247   0.000000
     35         45.004895   0.000000
     36         46.265233   0.000000
     37         48.071137   0.000000
     38         48.371940   0.000000
     39         49.087722   0.000000
     40         49.982488   0.000000
     41         52.347979   0.000000
     42         52.812203   0.000000
     43         54.119162   0.000000
     44         55.260155   0.000000
     45         55.510333   0.000000
     46         56.041181   0.000000
     47         56.171993   0.000000
     48         57.548512   0.000000

  0.4276316E+00  0.3223684E+00  0.7500000E+00  0.1000000E-01
      1         -2.355413   1.000000
      2         -1.509093   1.000000
      3          1.497238   1.000000
      4          2.798544   1.000000
      5          7.685751   0.000000
      6          9.852068   0.000000
      7         12.070232   0.000000
      8         12.381313   0.000000
      9         14.750825   0.000000
     10         15.694158   0.000000
     11         19.031507   0.000000
     12         20.201294   0.000000
     13         21.099163   0.000000
     14         22.022045   0.000000
     15         22.469697   0.000000
     16         23.239280   0.000000
     17         24.716632   0.000000
     18         25.295151   0.000000
     19         25.979336   0.000000
     20         27.839315   0.000000
     21         28.090984   0.000000
     22         29.446603   0.000000
     23         30.940132   0.000000
     24         31.432410   0.000000
     25         34.030453   0.000000
     26         34.313903   0.000000
     27         36.847376   0.000000
     28         36.884493   0.000000
     29         37.887640   0.000000
     30         38.151870   0.000000
     31         40.936521   0.000000
     32         42.394199   0.000000
     33         42.795273   0.000000
     34         44.713846   0.000000
     35         44.905975   0.000000
     36         45.939851   0.000000
     37         48.278471   0.000000
     38         48.379825   0.000000
     39         49.064920   0.000000
     40         49.903560   0.000000
     41         52.378061   0.000000
     42         52.770592   0.000000
     43         54.140673   0.000000
     44         55.346292   0.000000
     45         55.404019   0.000000
     46         56.253757   0.000000
     47         56.387019   0.000000
     48         57.553205   0.000000

  0.4210526E+00  0.3289474E+00  0.7500000E+00  0.1000000E-01
      1         -2.379401   1.000000
      2         -1.497054   1.000000
      3          1.477976   1.000000
      4          2.900133   1.000000
      5          7.508861   0.000000
      6          9.837189   0.000000
      7         12.227439   0.000000
      8         12.579815   0.000000
      9         14.596397   0.000000
     10         15.502777   0.000000
     11         19.196475   0.000000
     12         20.344786   0.000000
     13         21.050000   0.000000
     14         21.947880   0.000000
     15         22.259997   0.000000
     16         23.140521   0.000000
     17         24.839098   0.000000
     18         25.302758   0.000000
     19         26.161447   0.000000
     20         27.743473   0.000000
     21         28.208819   0.000000
     22         29.312336   0.000000
     23         30.871418   0.000000
     24         31.401924   0.000000
     25         34.127282   0.000000
     26         34.337689   0.000000
     27         36.676253   0.000000
     28         36.871822   0.000000
     29         38.288051   0.000000
     30         38.345344   0.000000
     31         40.861373   0.000000
     32         42.327434   0.000000
     33         42.594067   0.000000
     34         44.805164   0.000000
     35         44.824831   0.000000
     36         45.644728   0.000000
     37         48.398292   0.000000
     38         48.472769   0.000000
     39         49.083828   0.000000
     40         49.821689   0.000000
     41         52.411726   0.000000
     42         52.698365   0.000000
     43         54.158778   0.000000
     44         55.191411   0.000000
     45         55.545815   0.000000
     46         56.446162   0.000000
     47         56.599176   0.000000
     48         57.564883   0.000000

  0.4144737E+00  0.3355263E+00  0.7500000E+00  0.1000000E-01
      1         -2.400210   1.000000
      2         -1.487255   1.000000
      3          1.461216   1.000000
      4          2.997136   1.000000
      5          7.347058   0.000000
      6          9.823593   0.000000
      7         12.385094   0.000000
      8         12.781082   0.000000
      9         14.439545   0.000000
     10         15.303686   0.000000
     11         19.368473   0.000000
     12         20.483957   0.000000
     13         21.003234   0.000000
     14         21.871302   0.000000
     15         22.056930   0.000000
     16         23.043082   0.000000
     17         24.968017   0.000000
     18         25.307232   0.000000
     19         26.344952   0.000000
     20         27.619948   0.000000
     21         28.327777   0.000000
     22         29.159680   0.000000
     23         30.822781   0.000000
     24         31.390083   0.000000
     25         34.220351   0.000000
     26         34.380891   0.000000
     27         36.447005   0.000000
     28         36.855718   0.000000
     29         38.589153   0.000000
     30         38.692641   0.000000
     31         40.796613   0.000000
     32         42.268080   0.000000
     33         42.359483   0.000000
     34         44.729216   0.000000
     35         44.763975   0.000000
     36         45.491596   0.000000
     37         48.427702   0.000000
     38         48.594275   0.000000
     39         49.188975   0.000000
     40         49.740270   0.000000
     41         52.443709   0.000000
     42         52.585255   0.000000
     43         54.174490   0.000000
     44         55.051274   0.000000
     45         55.681495   0.000000
     46         56.610255   0.000000
     47         56.798755   0.000000
     48         57.580938   0.000000

  0.4078947E+00  0.3421053E+00  0.7500000E+00  0.1000000E-01
      1         -2.417813   1.000000
      2         -1.479414   1.000000
      3          1.447031   1.000000
      4          3.086840   1.000000
      5          7.202859   0.000000
      6          9.812216   0.000000
      7         12.542359   0.000000
      8         12.983008   0.000000
      9         14.284548   0.000000
     10         15.102171   0.000000
     11         19.544609   0.000000
     12         20.623214   0.000000
     13         20.956387   0.000000
     14         21.792621   0.000000
     15         21.862461   0.000000
     16         22.953291   0.000000
     17         25.094869   0.000000
     18         25.311042   0.000000
     19         26.525706   0.000000
     20         27.496299   0.000000
     21         28.427299   0.000000
     22         28.996661   0.000000
     23         30.789564   0.000000
     24         31.394421   0.000000
     25         34.307452   0.000000
     26         34.445300   0.000000
     27         36.213315   0.000000
     28         36.816660   0.000000
     29         38.866909   0.000000
     30         39.092519   0.000000
     31         40.741904   0.000000
     32         42.099001   0.000000
     33         42.218275   0.000000
     34         44.468815   0.000000
     35         44.716451   0.000000
     36         45.512082   0.000000
     37         48.460701   0.000000
     38         48.630147   0.000000
     39         49.390228   0.000000
     40         49.660808   0.000000
     41         52.439336   0.000000
     42         52.477011   0.000000
     43         54.193110   0.000000
     44         54.937101   0.000000
     45         55.806398   0.000000
     46         56.749193   0.000000
     47         56.975068   0.000000
     48         57.592872   0.000000

  0.4013158E+00  0.3486842E+00  0.7500000E+00  0.1000000E-01
      1         -2.432220   1.000000
      2         -1.473314   1.000000
      3          1.435405   1.000000
      4          3.166344   1.000000
      5          7.078997   0.000000
      6          9.802782   0.000000
      7         12.697633   0.000000
      8         13.185749   0.000000
      9         14.131183   0.000000
     10         14.898471   0.000000
     11         19.722877   0.000000
     12         20.758635   0.000000
     13         20.905301   0.000000
     14         21.682935   0.000000
     15         21.711132   0.000000
     16         22.873543   0.000000
     17         25.215532   0.000000
     18         25.313824   0.000000
     19         26.699963   0.000000
     20         27.378492   0.000000
     21         28.505248   0.000000
     22         28.831850   0.000000
     23         30.767182   0.000000
     24         31.408840   0.000000
     25         34.385577   0.000000
     26         34.532123   0.000000
     27         35.979371   0.000000
     28         36.768812   0.000000
     29         39.165235   0.000000
     30         39.474417   0.000000
     31         40.696849   0.000000
     32         41.817814   0.000000
     33         42.177434   0.000000
     34         44.140214   0.000000
     35         44.682387   0.000000
     36         45.594756   0.000000
     37         48.496676   0.000000
     38         48.621496   0.000000
     39         49.586795   0.000000
     40         49.639279   0.000000
     41         52.261848   0.000000
     42         52.507095   0.000000
     43         54.212730   0.000000
     44         54.846329   0.000000
     45         55.915328   0.000000
     46         56.866384   0.000000
     47         57.119824   0.000000
     48         57.591403   0.000000

  0.3947368E+00  0.3552632E+00  0.7500000E+00  0.1000000E-01
      1         -2.443421   1.000000
      2         -1.468712   1.000000
      3          1.426375   1.000000
      4          3.232724   1.000000
      5          6.978951   0.000000
      6          9.795527   0.000000
      7         12.848563   0.000000
      8         13.388757   0.000000
      9         13.982317   0.000000
     10         14.695071   0.000000
     11         19.901330   0.000000
     12         20.844524   0.000000
     13         20.889586   0.000000
     14         21.528413   0.000000
     15         21.626706   0.000000
     16         22.807522   0.000000
     17         25.316130   0.000000
     18         25.323649   0.000000
     19         26.861606   0.000000
     20         27.274083   0.000000
     21         28.572188   0.000000
     22         28.675725   0.000000
     23         30.756027   0.000000
     24         31.431343   0.000000
     25         34.452442   0.000000
     26         34.647335   0.000000
     27         35.750621   0.000000
     28         36.723056   0.000000
     29         39.479161   0.000000
     30         39.828275   0.000000
     31         40.661005   0.000000
     32         41.524607   0.000000
     33         42.146270   0.000000
     34         43.814234   0.000000
     35         44.659257   0.000000
     36         45.683571   0.000000
     37         48.533406   0.000000
     38         48.599245   0.000000
     39         49.526865   0.000000
     40         49.898320   0.000000
     41         52.065826   0.000000
     42         52.534932   0.000000
     43         54.232492   0.000000
     44         54.779090   0.000000
     45         56.005894   0.000000
     46         56.971295   0.000000
     47         57.229377   0.000000
     48         57.564022   0.000000

  0.3881579E+00  0.3618421E+00  0.7500000E+00  0.1000000E-01
      1         -2.451428   1.000000
      2         -1.465571   1.000000
      3          1.419901   1.000000
      4          3.282701   1.000000
      5          6.904514   0.000000
      6          9.790193   0.000000
      7         12.987939   0.000000
      8         13.587516   0.000000
      9         13.844022   0.000000
     10         14.494847   0.000000
     11         20.071833   0.000000
     12         20.765319   0.000000
     13         21.009674   0.000000
     14         21.408669   0.000000
     15         21.540778   0.000000
     16         22.757722   0.000000
     17         25.317468   0.000000
     18         25.410619   0.000000
     19         26.999098   0.000000
     20         27.189074   0.000000
     21         28.539857   0.000000
     22         28.610657   0.000000
     23         30.746810   0.000000
     24         31.449317   0.000000
     25         34.502772   0.000000
     26         34.780785   0.000000
     27         35.529312   0.000000
     28         36.684171   0.000000
     29         39.790749   0.000000
     30         40.122848   0.000000
     31         40.630796   0.000000
     32         41.228230   0.000000
     33         42.123555   0.000000
     34         43.531094   0.000000
     35         44.644148   0.000000
     36         45.752906   0.000000
     37         48.563765   0.000000
     38         48.576908   0.000000
     39         49.475292   0.000000
     40         50.139335   0.000000
     41         51.868767   0.000000
     42         52.553908   0.000000
     43         54.248430   0.000000
     44         54.731671   0.000000
     45         56.069470   0.000000
     46         57.070992   0.000000
     47         57.301126   0.000000
     48         57.508415   0.000000

  0.3815789E+00  0.3684211E+00  0.7500000E+00  0.1000000E-01
      1         -2.456233   1.000000
      2         -1.463728   1.000000
      3          1.416014   1.000000
      4          3.313866   1.000000
      5          6.858706   0.000000
      6          9.786978   0.000000
      7         13.100196   0.000000
      8         13.732407   0.000000
      9         13.771277   0.000000
     10         14.310054   0.000000
     11         20.220696   0.000000
     12         20.673021   0.000000
     13         21.110005   0.000000
     14         21.335156   0.000000
     15         21.461765   0.000000
     16         22.726830   0.000000
     17         25.318240   0.000000
     18         25.467972   0.000000
     19         27.095843   0.000000
     20         27.132996   0.000000
     21         28.443548   0.000000
     22         28.632826   0.000000
     23         30.741758   0.000000
     24         31.461948   0.000000
     25         34.534446   0.000000
     26         34.934493   0.000000
     27         35.321789   0.000000
     28         36.658652   0.000000
     29         40.085281   0.000000
     30         40.327676   0.000000
     31         40.595159   0.000000
     32         40.960230   0.000000
     33         42.109884   0.000000
     34         43.331607   0.000000
     35         44.635752   0.000000
     36         45.797294   0.000000
     37         48.561204   0.000000
     38         48.584618   0.000000
     39         49.441708   0.000000
     40         50.325680   0.000000
     41         51.708359   0.000000
     42         52.565691   0.000000
     43         54.259006   0.000000
     44         54.703747   0.000000
     45         56.107538   0.000000
     46         57.164034   0.000000
     47         57.341490   0.000000
     48         57.435505   0.000000

  0.3750000E+00  0.3750000E+00  0.7500000E+00  0.1000000E-01
      1         -2.457835   1.000000
      2         -1.463115   1.000000
      3          1.414738   1.000000
      4          3.324463   1.000000
      5          6.843311   0.000000
      6          9.785932   0.000000
      7         13.148485   0.000000
      8         13.686036   0.000000
      9         13.873372   0.000000
     10         14.207983   0.000000
     11         20.294073   0.000000
     12         20.618597   0.000000
     13         21.156613   0.000000
     14         21.312057   0.000000
     15         21.422504   0.000000
     16         22.718322   0.000000
     17         25.318832   0.000000
     18         25.488131   0.000000
     19         27.113904   0.000000
     20         27.131591   0.000000
     21         28.407974   0.000000
     22         28.640296   0.000000
     23         30.740216   0.000000
     24         31.466819   0.000000
     25         34.545670   0.000000
     26         35.070069   0.000000
     27         35.169499   0.000000
     28         36.649972   0.000000
     29         40.259719   0.000000
     30         40.402750   0.000000
     31         40.545249   0.000000
     32         40.833655   0.000000
     33         42.105409   0.000000
     34         43.258417   0.000000
     35         44.633151   0.000000
     36         45.818094   0.000000
     37         48.556928   0.000000
     38         48.592110   0.000000
     39         49.432006   0.000000
     40         50.400142   0.000000
     41         51.644611   0.000000
     42         52.570322   0.000000
     43         54.263468   0.000000
     44         54.699149   0.000000
     45         56.123378   0.000000
     46         57.217353   0.000000
     47         57.355005   0.000000
     48         57.390879   0.000000

  0.3750000E+00  0.3750000E+00  0.7500000E+00  0.1000000E-01
      1         -2.457835   1.000000
      2         -1.463115   1.000000
      3          1.414738   1.000000
      4          3.324463   1.000000
      5          6.843311   0.000000
      6          9.785932   0.000000
      7         13.148485   0.000000
      8         13.686036   0.000000
      9         13.873372   0.000000
     10         14.207983   0.000000
     11         20.294073   0.000000
     12         20.618597   0.000000
     13         21.156613   0.000000
     14         21.312057   0.000000
     15         21.422504   0.000000
     16         22.718322   0.000000
     17         25.318832   0.000000
     18         25.488131   0.000000
     19         27.113904   0.000000
     20         27.131591   0.000000
     21         28.407974   0.000000
     22         28.640296   0.000000
     23         30.740216   0.000000
     24         31.466819   0.000000
     25         34.545670   0.000000
     26         35.070069   0.000000
     27         35.169499   0.000000
     28         36.649972   0.000000
     29         40.259719   0.000000
     30         40.402750   0.000000
     31         40.545249   0.000000
     32         40.833655   0.000000
     33         42.105409   0.000000
     34         43.258417   0.000000
     35         44.633151   0.000000
     36         45.818094   0.000000
     37         48.556928   0.000000
     38         48.592110   0.000000
     39         49.432006   0.000000
     40         50.400142   0.000000
     41         51.644611   0.000000
     42         52.570322   0.000000
     43         54.263468   0.000000
     44         54.699149   0.000000
     45         56.123421   0.000000
     46         57.218737   0.000000
     47         57.355128   0.000000
     48         57.391120   0.000000

  0.3552632E+00  0.3552632E+00  0.7105263E+00  0.1000000E-01
      1         -2.656244   1.000000
      2         -1.263760   1.000000
      3          1.316469   1.000000
      4          3.464532   1.000000
      5          7.006367   0.000000
      6         10.588946   0.000000
      7         12.669847   0.000000
      8         13.199423   0.000000
      9         13.485357   0.000000
     10         13.791105   0.000000
     11         20.310300   0.000000
     12         20.975142   0.000000
     13         21.013016   0.000000
     14         21.137039   0.000000
     15         21.708943   0.000000
     16         23.397212   0.000000
     17         24.341793   0.000000
     18         25.511516   0.000000
     19         27.576724   0.000000
     20         27.737353   0.000000
     21         28.223453   0.000000
     22         28.895379   0.000000
     23         31.506079   0.000000
     24         32.168711   0.000000
     25         33.359006   0.000000
     26         34.798753   0.000000
     27         35.038137   0.000000
     28         35.856266   0.000000
     29         40.222494   0.000000
     30         40.438235   0.000000
     31         40.574481   0.000000
     32         41.118730   0.000000
     33         42.303258   0.000000
     34         43.091132   0.000000
     35         44.486158   0.000000
     36         45.448123   0.000000
     37         48.699109   0.000000
     38         48.883603   0.000000
     39         48.993087   0.000000
     40         51.321111   0.000000
     41         52.013051   0.000000
     42         53.275477   0.000000
     43         53.685728   0.000000
     44         54.930926   0.000000
     45         55.911062   0.000000
     46         56.810694   0.000000
     47         56.816736   0.000000
     48         58.289361   0.000000

  0.3355263E+00  0.3355263E+00  0.6710526E+00  0.1000000E-01
      1         -2.895454   1.000000
      2         -1.035717   1.000000
      3          1.300009   1.000000
      4          3.621004   1.000000
      5          7.188736   0.000000
      6         11.380446   0.000000
      7         12.210842   0.000000
      8         12.783580   0.000000
      9         13.111011   0.000000
     10         13.402316   0.000000
     11         19.971609   0.000000
     12         20.513400   0.000000
     13         21.316800   0.000000
     14         21.393489   0.000000
     15         22.249758   0.000000
     16         23.373707   0.000000
     17         24.015616   0.000000
     18         25.485783   0.000000
     19         27.895912   0.000000
     20         28.114249   0.000000
     21         28.380744   0.000000
     22         29.439568   0.000000
     23         32.243632   0.000000
     24         32.316187   0.000000
     25         32.914871   0.000000
     26         34.530708   0.000000
     27         34.883442   0.000000
     28         35.001002   0.000000
     29         40.084732   0.000000
     30         40.641028   0.000000
     31         40.651116   0.000000
     32         41.497260   0.000000
     33         42.473931   0.000000
     34         43.039960   0.000000
     35         44.216141   0.000000
     36         45.024271   0.000000
     37         47.868161   0.000000
     38         49.130498   0.000000
     39         49.353092   0.000000
     40         51.966713   0.000000
     41         52.339025   0.000000
     42         53.611757   0.000000
     43         53.624666   0.000000
     44         55.003075   0.000000
     45         55.523310   0.000000
     46         56.487814   0.000000
     47         56.511120   0.000000
     48         58.645835   0.000000

  0.3157895E+00  0.3157895E+00  0.6315789E+00  0.1000000E-01
      1         -3.165603   1.000000
      2         -0.779298   1.000000
      3          1.358353   1.000000
      4          3.791793   1.000000
      5          7.387451   0.000000
      6         11.772234   0.000000
      7         11.864788   0.000000
      8         12.715969   0.000000
      9         12.755275   0.000000
     10         13.044866   0.000000
     11         19.545816   0.000000
     12         20.072822   0.000000
     13         21.468366   0.000000
     14         21.756661   0.000000
     15         22.534598   0.000000
     16         22.764057   0.000000
     17         24.250397   0.000000
     18         25.576185   0.000000
     19         27.818223   0.000000
     20         28.711273   0.000000
     21         28.956155   0.000000
     22         30.026857   0.000000
     23         31.301897   0.000000
     24         33.146205   0.000000
     25         33.550499   0.000000
     26         33.839470   0.000000
     27         34.455190   0.000000
     28         34.958684   0.000000
     29         39.975610   0.000000
     30         40.686577   0.000000
     31         40.864647   0.000000
     32         41.899869   0.000000
     33         42.574327   0.000000
     34         43.144575   0.000000
     35         43.917588   0.000000
     36         44.543285   0.000000
     37         46.997120   0.000000
     38         49.055791   0.000000
     39         49.859135   0.000000
     40         51.429158   0.000000
     41         53.211016   0.000000
     42         53.484215   0.000000
     43         54.141750   0.000000
     44         54.767042   0.000000
     45         55.197308   0.000000
     46         56.358002   0.000000
     47         56.426487   0.000000
     48         58.356309   0.000000

  0.2960526E+00  0.2960526E+00  0.5921053E+00  0.1000000E-01
      1         -3.454844   1.000000
      2         -0.494667   1.000000
      3          1.481600   1.000000
      4          3.974545   1.000000
      5          7.599320   0.000000
      6         11.355342   0.000000
      7         11.650131   0.000000
      8         12.423999   0.000000
      9         12.721250   0.000000
     10         13.380990   0.000000
     11         19.119026   0.000000
     12         19.668170   0.000000
     13         21.006381   0.000000
     14         22.093775   0.000000
     15         22.341983   0.000000
     16         23.254279   0.000000
     17         23.885053   0.000000
     18         25.974440   0.000000
     19         28.041260   0.000000
     20         29.037925   0.000000
     21         29.354708   0.000000
     22         30.644144   0.000000
     23         30.960749   0.000000
     24         32.782646   0.000000
     25         33.700105   0.000000
     26         34.001486   0.000000
     27         34.904421   0.000000
     28         34.914865   0.000000
     29         39.897677   0.000000
     30         40.590411   0.000000
     31         41.100612   0.000000
     32         42.323854   0.000000
     33         42.644676   0.000000
     34         43.373191   0.000000
     35         43.719410   0.000000
     36         43.997038   0.000000
     37         46.082775   0.000000
     38         48.831827   0.000000
     39         50.302081   0.000000
     40         50.787516   0.000000
     41         53.107574   0.000000
     42         53.356807   0.000000
     43         54.851083   0.000000
     44         54.868192   0.000000
     45         54.955773   0.000000
     46         56.103858   0.000000
     47         56.357732   0.000000
     48         57.852453   0.000000

  0.2763158E+00  0.2763158E+00  0.5526316E+00  0.1000000E-01
      1         -3.752395   1.000000
      2         -0.182304   1.000000
      3          1.660023   1.000000
      4          4.165937   1.000000
      5          7.817922   0.000000
      6         10.963358   0.000000
      7         11.287917   0.000000
      8         12.123156   0.000000
      9         12.438906   0.000000
     10         14.212629   0.000000
     11         18.710755   0.000000
     12         19.318539   0.000000
     13         20.115503   0.000000
     14         22.412855   0.000000
     15         22.607932   0.000000
     16         23.231918   0.000000
     17         23.736836   0.000000
     18         26.418001   0.000000
     19         28.375971   0.000000
     20         28.548909   0.000000
     21         30.029696   0.000000
     22         31.157626   0.000000
     23         31.478773   0.000000
     24         31.882124   0.000000
     25         33.583645   0.000000
     26         34.838204   0.000000
     27         34.889383   0.000000
     28         35.662588   0.000000
     29         39.867003   0.000000
     30         40.321296   0.000000
     31         41.343013   0.000000
     32         42.748261   0.000000
     33         42.778037   0.000000
     34         43.445309   0.000000
     35         43.667976   0.000000
     36         43.705394   0.000000
     37         45.209711   0.000000
     38         48.510077   0.000000
     39         50.173054   0.000000
     40         50.602590   0.000000
     41         52.630410   0.000000
     42         52.797027   0.000000
     43         54.778581   0.000000
     44         55.036205   0.000000
     45         55.587262   0.000000
     46         56.037855   0.000000
     47         56.192532   0.000000
     48         57.430928   0.000000

  0.2565789E+00  0.2565789E+00  0.5131579E+00  0.1000000E-01
      1         -4.049339   1.000000
      2          0.157436   1.000000
      3          1.884793   1.000000
      4          4.362470   1.000000
      5          8.036584   0.000000
      6         10.595488   0.000000
      7         10.922339   0.000000
      8         11.858943   0.000000
      9         12.198621   0.000000
     10         15.023815   0.000000
     11         18.319568   0.000000
     12         19.055146   0.000000
     13         19.179047   0.000000
     14         22.480113   0.000000
     15         22.684270   0.000000
     16         22.950813   0.000000
     17         24.210031   0.000000
     18         26.798519   0.000000
     19         27.524439   0.000000
     20         29.253252   0.000000
     21         30.546450   0.000000
     22         30.701397   0.000000
     23         32.156090   0.000000
     24         32.314904   0.000000
     25         33.430504   0.000000
     26         34.899460   0.000000
     27         35.651582   0.000000
     28         36.465909   0.000000
     29         39.866025   0.000000
     30         39.904448   0.000000
     31         41.556476   0.000000
     32         42.871007   0.000000
     33         42.907809   0.000000
     34         43.273541   0.000000
     35         43.861040   0.000000
     36         43.998282   0.000000
     37         44.386740   0.000000
     38         48.086383   0.000000
     39         49.613651   0.000000
     40         50.737159   0.000000
     41         52.084080   0.000000
     42         52.139927   0.000000
     43         54.593962   0.000000
     44         54.605785   0.000000
     45         55.928524   0.000000
     46         56.076847   0.000000
     47         56.096737   0.000000
     48         57.311863   0.000000

  0.2368421E+00  0.2368421E+00  0.4736842E+00  0.1000000E-01
      1         -4.338829   1.000000
      2          0.524053   1.000000
      3          2.148701   1.000000
      4          4.559943   1.000000
      5          8.245445   0.000000
      6         10.253388   0.000000
      7         10.575279   0.000000
      8         11.639126   0.000000
      9         12.006315   0.000000
     10         15.718422   0.000000
     11         17.902216   0.000000
     12         18.302470   0.000000
     13         18.947324   0.000000
     14         21.708578   0.000000
     15         22.863263   0.000000
     16         23.310662   0.000000
     17         24.675176   0.000000
     18         26.741474   0.000000
     19         27.133012   0.000000
     20         29.570461   0.000000
     21         30.072613   0.000000
     22         31.327038   0.000000
     23         32.846356   0.000000
     24         33.260604   0.000000
     25         33.289953   0.000000
     26         34.982141   0.000000
     27         36.397669   0.000000
     28         37.258362   0.000000
     29         39.436110   0.000000
     30         39.883080   0.000000
     31         41.646612   0.000000
     32         42.304050   0.000000
     33         43.129659   0.000000
     34         43.719016   0.000000
     35         43.815914   0.000000
     36         44.138613   0.000000
     37         44.352725   0.000000
     38         47.556117   0.000000
     39         49.137184   0.000000
     40         50.739775   0.000000
     41         51.365839   0.000000
     42         51.676498   0.000000
     43         54.023720   0.000000
     44         54.340529   0.000000
     45         55.595099   0.000000
     46         55.615260   0.000000
     47         55.934451   0.000000
     48         57.666942   0.000000

  0.2171053E+00  0.2171053E+00  0.4342105E+00  0.1000000E-01
      1         -4.615598   1.000000
      2          0.917010   1.000000
      3          2.445788   1.000000
      4          4.753845   1.000000
      5          8.432197   0.000000
      6          9.937748   0.000000
      7         10.251303   0.000000
      8         11.472131   0.000000
      9         11.869440   0.000000
     10         16.162176   0.000000
     11         17.203074   0.000000
     12         17.764989   0.000000
     13         19.101562   0.000000
     14         20.973207   0.000000
     15         22.863034   0.000000
     16         23.668857   0.000000
     17         25.142761   0.000000
     18         26.166491   0.000000
     19         27.446592   0.000000
     20         28.618120   0.000000
     21         30.944379   0.000000
     22         31.846816   0.000000
     23         33.192303   0.000000
     24         33.580642   0.000000
     25         34.274191   0.000000
     26         35.177520   0.000000
     27         36.956255   0.000000
     28         38.014874   0.000000
     29         39.097262   0.000000
     30         39.913044   0.000000
     31         41.415011   0.000000
     32         41.775893   0.000000
     33         43.411001   0.000000
     34         43.413498   0.000000
     35         44.372957   0.000000
     36         44.530872   0.000000
     37         44.721505   0.000000
     38         46.928310   0.000000
     39         48.747625   0.000000
     40         50.675930   0.000000
     41         50.702952   0.000000
     42         51.252015   0.000000
     43         53.445113   0.000000
     44         54.003540   0.000000
     45         54.837688   0.000000
     46         55.220848   0.000000
     47         55.521134   0.000000
     48         56.956905   0.000000

  0.1973684E+00  0.1973684E+00  0.3947368E+00  0.1000000E-01
      1         -4.875898   1.000000
      2          1.335401   1.000000
      3          2.770463   1.000000
      4          4.938926   1.000000
      5          8.582364   0.000000
      6          9.648545   0.000000
      7          9.950260   0.000000
      8         11.364280   0.000000
      9         11.788598   0.000000
     10         16.277886   0.000000
     11         16.346569   0.000000
     12         17.451461   0.000000
     13         19.454287   0.000000
     14         20.431026   0.000000
     15         22.584606   0.000000
     16         24.002301   0.000000
     17         25.615117   0.000000
     18         25.906226   0.000000
     19         27.732435   0.000000
     20         27.742953   0.000000
     21         31.732704   0.000000
     22         32.212172   0.000000
     23         33.225986   0.000000
     24         34.295369   0.000000
     25         35.327164   0.000000
     26         35.507070   0.000000
     27         37.073531   0.000000
     28         38.697033   0.000000
     29         39.180663   0.000000
     30         39.923368   0.000000
     31         40.821199   0.000000
     32         41.338754   0.000000
     33         43.516063   0.000000
     34         43.740046   0.000000
     35         44.817574   0.000000
     36         45.075098   0.000000
     37         45.131632   0.000000
     38         46.224460   0.000000
     39         48.446067   0.000000
     40         50.136131   0.000000
     41         50.577260   0.000000
     42         50.860131   0.000000
     43         52.920063   0.000000
     44         53.585836   0.000000
     45         54.007907   0.000000
     46         54.790788   0.000000
     47         55.043540   0.000000
     48         56.240170   0.000000

  0.1776316E+00  0.1776316E+00  0.3552632E+00  0.1000000E-01
      1         -5.116914   1.000000
      2          1.778180   1.000000
      3          3.117560   1.000000
      4          5.109867   1.000000
      5          8.684506   0.000000
      6          9.385787   0.000000
      7          9.671852   0.000000
      8         11.313432   0.000000
      9         11.767420   0.000000
     10         15.508904   0.000000
     11         16.146106   0.000000
     12         17.198714   0.000000
     13         19.258438   0.000000
     14         20.750006   0.000000
     15         22.038938   0.000000
     16         24.250286   0.000000
     17         25.948391   0.000000
     18         26.086886   0.000000
     19         26.975635   0.000000
     20         28.028405   0.000000
     21         32.185540   0.000000
     22         32.402598   0.000000
     23         33.625512   0.000000
     24         34.901908   0.000000
     25         35.917008   0.000000
     26         36.404390   0.000000
     27         36.829418   0.000000
     28         39.257920   0.000000
     29         39.692905   0.000000
     30         39.882620   0.000000
     31         40.053582   0.000000
     32         41.076186   0.000000
     33         43.833629   0.000000
     34         44.093065   0.000000
     35         45.156104   0.000000
     36         45.233457   0.000000
     37         45.730995   0.000000
     38         45.830383   0.000000
     39         48.233539   0.000000
     40         49.693889   0.000000
     41         50.485845   0.000000
     42         50.504684   0.000000
     43         52.489512   0.000000
     44         53.109505   0.000000
     45         53.191539   0.000000
     46         54.315137   0.000000
     47         54.536191   0.000000
     48         55.535377   0.000000

  0.1578947E+00  0.1578947E+00  0.3157895E+00  0.1000000E-01
      1         -5.336438   1.000000
      2          2.244010   1.000000
      3          3.481758   1.000000
      4          5.263198   1.000000
      5          8.735008   0.000000
      6          9.150528   0.000000
      7          9.417725   0.000000
      8         11.299587   0.000000
      9         11.810522   0.000000
     10         14.733634   0.000000
     11         15.875380   0.000000
     12         16.991248   0.000000
     13         18.726349   0.000000
     14         21.346152   0.000000
     15         21.625835   0.000000
     16         24.285237   0.000000
     17         26.186911   0.000000
     18         26.485499   0.000000
     19         26.572606   0.000000
     20         28.305867   0.000000
     21         32.267640   0.000000
     22         32.470613   0.000000
     23         34.425438   0.000000
     24         35.130888   0.000000
     25         36.277730   0.000000
     26         36.774086   0.000000
     27         37.490566   0.000000
     28         39.270659   0.000000
     29         39.622681   0.000000
     30         39.844623   0.000000
     31         40.365274   0.000000
     32         41.048551   0.000000
     33         44.253345   0.000000
     34         44.421950   0.000000
     35         44.582583   0.000000
     36         45.657480   0.000000
     37         45.962862   0.000000
     38         46.555998   0.000000
     39         48.111288   0.000000
     40         49.391315   0.000000
     41         50.186530   0.000000
     42         50.442106   0.000000
     43         52.197837   0.000000
     44         52.410518   0.000000
     45         52.599821   0.000000
     46         53.799882   0.000000
     47         54.010081   0.000000
     48         54.850699   0.000000

  0.1381579E+00  0.1381579E+00  0.2763158E+00  0.1000000E-01
      1         -5.532890   1.000000
      2          2.730832   1.000000
      3          3.856805   1.000000
      4          5.395547   1.000000
      5          8.740110   0.000000
      6          8.942444   0.000000
      7          9.186703   0.000000
      8         11.271125   0.000000
      9         11.917749   0.000000
     10         14.068259   0.000000
     11         15.524061   0.000000
     12         16.829567   0.000000
     13         18.225478   0.000000
     14         20.597244   0.000000
     15         22.634818   0.000000
     16         23.966929   0.000000
     17         26.407371   0.000000
     18         26.528785   0.000000
     19         27.059765   0.000000
     20         28.568111   0.000000
     21         32.217838   0.000000
     22         32.448648   0.000000
     23         34.811895   0.000000
     24         35.370888   0.000000
     25         36.420836   0.000000
     26         37.206979   0.000000
     27         38.274067   0.000000
     28         38.805379   0.000000
     29         39.651290   0.000000
     30         39.912281   0.000000
     31         41.071084   0.000000
     32         41.253464   0.000000
     33         44.090512   0.000000
     34         44.696532   0.000000
     35         44.738185   0.000000
     36         46.086558   0.000000
     37         46.317609   0.000000
     38         47.257405   0.000000
     39         48.076205   0.000000
     40         49.222019   0.000000
     41         49.905018   0.000000
     42         50.506464   0.000000
     43         51.642518   0.000000
     44         52.092210   0.000000
     45         52.108060   0.000000
     46         53.255661   0.000000
     47         53.465747   0.000000
     48         54.186991   0.000000

  0.1184211E+00  0.1184211E+00  0.2368421E+00  0.1000000E-01
      1         -5.705092   1.000000
      2          3.235392   1.000000
      3          4.235134   1.000000
      4          5.505339   1.000000
      5          8.711960   0.000000
      6          8.761783   0.000000
      7          8.977895   0.000000
      8         11.141382   0.000000
      9         12.086344   0.000000
     10         13.579195   0.000000
     11         15.125187   0.000000
     12         16.714952   0.000000
     13         17.805822   0.000000
     14         19.842346   0.000000
     15         23.399525   0.000000
     16         23.698271   0.000000
     17         26.633720   0.000000
     18         26.921693   0.000000
     19         27.551393   0.000000
     20         28.809310   0.000000
     21         32.131882   0.000000
     22         32.369602   0.000000
     23         34.240850   0.000000
     24         36.303905   0.000000
     25         36.350411   0.000000
     26         37.639834   0.000000
     27         37.844154   0.000000
     28         39.247182   0.000000
     29         39.778502   0.000000
     30         40.082697   0.000000
     31         41.710828   0.000000
     32         41.766170   0.000000
     33         43.943547   0.000000
     34         44.838646   0.000000
     35         45.275279   0.000000
     36         46.515305   0.000000
     37         46.713047   0.000000
     38         47.844185   0.000000
     39         48.127541   0.000000
     40         49.154446   0.000000
     41         49.659802   0.000000
     42         50.750406   0.000000
     43         50.926510   0.000000
     44         51.609212   0.000000
     45         52.209766   0.000000
     46         52.695675   0.000000
     47         52.908448   0.000000
     48         53.555420   0.000000

  0.9868421E-01  0.9868421E-01  0.1973684E+00  0.1000000E-01
      1         -5.852092   1.000000
      2          3.753283   1.000000
      3          4.606902   1.000000
      4          5.592786   1.000000
      5          8.608619   0.000000
      6          8.663140   0.000000
      7          8.790525   0.000000
      8         10.835012   0.000000
      9         12.309962   0.000000
     10         13.325654   0.000000
     11         14.708292   0.000000
     12         16.651342   0.000000
     13         17.472664   0.000000
     14         19.110506   0.000000
     15         22.765449   0.000000
     16         24.782880   0.000000
     17         27.002023   0.000000
     18         27.331809   0.000000
     19         28.044906   0.000000
     20         29.027590   0.000000
     21         32.036510   0.000000
     22         32.243667   0.000000
     23         33.620278   0.000000
     24         36.019831   0.000000
     25         36.928638   0.000000
     26         37.320831   0.000000
     27         38.495897   0.000000
     28         38.504986   0.000000
     29         40.241588   0.000000
     30         40.850168   0.000000
     31         42.419308   0.000000
     32         42.423627   0.000000
     33         44.053166   0.000000
     34         44.899015   0.000000
     35         45.855417   0.000000
     36         46.935061   0.000000
     37         47.135691   0.000000
     38         48.220305   0.000000
     39         48.262222   0.000000
     40         49.146352   0.000000
     41         49.453350   0.000000
     42         50.277451   0.000000
     43         51.120414   0.000000
     44         51.314076   0.000000
     45         52.139238   0.000000
     46         52.345444   0.000000
     47         52.410677   0.000000
     48         53.075298   0.000000

  0.7894737E-01  0.7894737E-01  0.1578947E+00  0.1000000E-01
      1         -5.973214   1.000000
      2          4.275716   1.000000
      3          4.959445   1.000000
      4          5.659260   1.000000
      5          8.483218   0.000000
      6          8.602712   0.000000
      7          8.624363   0.000000
      8         10.377070   0.000000
      9         12.576894   0.000000
     10         13.268085   0.000000
     11         14.305055   0.000000
     12         16.637506   0.000000
     13         17.218744   0.000000
     14         18.424228   0.000000
     15         22.149837   0.000000
     16         25.862923   0.000000
     17         27.421504   0.000000
     18         27.739771   0.000000
     19         28.529650   0.000000
     20         29.225487   0.000000
     21         31.938387   0.000000
     22         32.082873   0.000000
     23         32.996038   0.000000
     24         35.670785   0.000000
     25         36.269239   0.000000
     26         37.566164   0.000000
     27         38.251449   0.000000
     28         39.136116   0.000000
     29         40.360760   0.000000
     30         41.875943   0.000000
     31         43.028021   0.000000
     32         43.299820   0.000000
     33         44.162502   0.000000
     34         45.034707   0.000000
     35         46.469718   0.000000
     36         47.336472   0.000000
     37         47.538882   0.000000
     38         48.384033   0.000000
     39         48.476701   0.000000
     40         49.189624   0.000000
     41         49.300710   0.000000
     42         49.733675   0.000000
     43         50.830631   0.000000
     44         51.613606   0.000000
     45         51.785223   0.000000
     46         51.990798   0.000000
     47         52.073406   0.000000
     48         53.411824   0.000000

  0.5921053E-01  0.5921053E-01  0.1184211E+00  0.1000000E-01
      1         -6.067910   1.000000
      2          4.787498   1.000000
      3          5.275086   1.000000
      4          5.707343   1.000000
      5          8.385636   0.000000
      6          8.480609   0.000000
      7          8.532051   0.000000
      8          9.866257   0.000000
      9         12.867260   0.000000
     10         13.309965   0.000000
     11         13.947733   0.000000
     12         16.668599   0.000000
     13         17.031781   0.000000
     14         17.807454   0.000000
     15         21.603151   0.000000
     16         26.895064   0.000000
     17         27.857657   0.000000
     18         28.118000   0.000000
     19         28.999782   0.000000
     20         29.402710   0.000000
     21         31.822614   0.000000
     22         31.886622   0.000000
     23         32.409425   0.000000
     24         35.341256   0.000000
     25         35.700386   0.000000
     26         36.587258   0.000000
     27         39.104456   0.000000
     28         39.692950   0.000000
     29         40.441141   0.000000
     30         42.807012   0.000000
     31         43.549835   0.000000
     32         44.090969   0.000000
     33         44.249670   0.000000
     34         45.359933   0.000000
     35         47.065596   0.000000
     36         47.659255   0.000000
     37         47.799564   0.000000
     38         48.471125   0.000000
     39         48.762483   0.000000
     40         49.253893   0.000000
     41         49.335853   0.000000
     42         49.378186   0.000000
     43         50.617719   0.000000
     44         51.151263   0.000000
     45         51.251301   0.000000
     46         51.476983   0.000000
     47         52.328584   0.000000
     48         53.381518   0.000000

  0.3947368E-01  0.3947368E-01  0.7894737E-01  0.1000000E-01
      1         -6.135798   1.000000
      2          5.257160   1.000000
      3          5.531925   1.000000
      4          5.739435   1.000000
      5          8.315891   0.000000
      6          8.365371   0.000000
      7          8.441914   0.000000
      8          9.406954   0.000000
      9         13.147389   0.000000
     10         13.376562   0.000000
     11         13.666371   0.000000
     12         16.727653   0.000000
     13         16.905929   0.000000
     14         17.294562   0.000000
     15         21.164782   0.000000
     16         27.821110   0.000000
     17         28.270836   0.000000
     18         28.433071   0.000000
     19         29.432073   0.000000
     20         29.575897   0.000000
     21         31.663837   0.000000
     22         31.673237   0.000000
     23         31.892933   0.000000
     24         35.077274   0.000000
     25         35.249751   0.000000
     26         35.718997   0.000000
     27         39.828797   0.000000
     28         40.136458   0.000000
     29         40.492954   0.000000
     30         43.581956   0.000000
     31         43.917176   0.000000
     32         43.958159   0.000000
     33         45.161169   0.000000
     34         45.749929   0.000000
     35         47.503750   0.000000
     36         47.768305   0.000000
     37         47.820608   0.000000
     38         48.721440   0.000000
     39         49.093681   0.000000
     40         49.255835   0.000000
     41         49.455773   0.000000
     42         49.680935   0.000000
     43         50.508199   0.000000
     44         50.789146   0.000000
     45         50.792850   0.000000
     46         50.874565   0.000000
     47         51.645977   0.000000
     48         53.323485   0.000000

  0.1973684E-01  0.1973684E-01  0.3947368E-01  0.1000000E-01
      1         -6.176620   1.000000
      2          5.619223   1.000000
      3          5.702960   1.000000
      4          5.757730   1.000000
      5          8.274023   0.000000
      6          8.287897   0.000000
      7          8.326619   0.000000
      8          9.102801   0.000000
      9         13.363332   0.000000
     10         13.428225   0.000000
     11         13.485975   0.000000
     12         16.785188   0.000000
     13         16.832811   0.000000
     14         16.939325   0.000000
     15         20.875878   0.000000
     16         28.486965   0.000000
     17         28.594751   0.000000
     18         28.646829   0.000000
     19         29.773666   0.000000
     20         29.778238   0.000000
     21         31.453369   0.000000
     22         31.479357   0.000000
     23         31.507449   0.000000
     24         34.908067   0.000000
     25         34.954773   0.000000
     26         35.087792   0.000000
     27         40.342496   0.000000
     28         40.426820   0.000000
     29         40.522501   0.000000
     30         43.745944   0.000000
     31         44.117358   0.000000
     32         44.221526   0.000000
     33         45.879585   0.000000
     34         46.055300   0.000000
     35         47.666086   0.000000
     36         47.720433   0.000000
     37         47.729477   0.000000
     38         49.152188   0.000000
     39         49.336891   0.000000
     40         49.370846   0.000000
     41         50.012895   0.000000
     42         50.130587   0.000000
     43         50.354898   0.000000
     44         50.465031   0.000000
     45         50.535086   0.000000
     46         50.561134   0.000000
     47         50.922881   0.000000
     48         52.308590   0.000000

  0.2081668E-16  0.2081668E-16  0.4163336E-16  0.1000000E-01
      1         -6.190308   1.000000
      2          5.762463   1.000000
      3          5.762463   1.000000
      4          5.762463   1.000000
      5          8.258695   0.000000
      6          8.258695   0.000000
      7          8.258695   0.000000
      8          9.004203   0.000000
      9         13.423546   0.000000
     10         13.439725   0.000000
     11         13.439725   0.000000
     12         16.806428   0.000000
     13         16.806428   0.000000
     14         16.806428   0.000000
     15         20.774053   0.000000
     16         28.702898   0.000000
     17         28.702898   0.000000
     18         28.702898   0.000000
     19         29.887986   0.000000
     20         29.887986   0.000000
     21         31.347318   0.000000
     22         31.347319   0.000000
     23         31.347319   0.000000
     24         34.846543   0.000000
     25         34.846543   0.000000
     26         34.846543   0.000000
     27         40.495473   0.000000
     28         40.495473   0.000000
     29         40.495473   0.000000
     30         43.671082   0.000000
     31         44.276440   0.000000
     32         44.276440   0.000000
     33         46.152444   0.000000
     34         46.152444   0.000000
     35         47.678381   0.000000
     36         47.678381   0.000000
     37         47.678382   0.000000
     38         49.443201   0.000000
     39         49.443204   0.000000
     40         49.443217   0.000000
     41         50.038813   0.000000
     42         50.441419   0.000000
     43         50.441459   0.000000
     44         50.441958   0.000000
     45         50.533756   0.000000
     46         50.533923   0.000000
     47         50.535626   0.000000
     48         51.890159   0.000000

  0.0000000E+00  0.0000000E+00  0.0000000E+00  0.1000000E-01
      1         -6.190308   1.000000
      2          5.762463   1.000000
      3          5.762463   1.000000
      4          5.762463   1.000000
      5          8.258695   0.000000
      6          8.258695   0.000000
      7          8.258695   0.000000
      8          9.004203   0.000000
      9         13.423546   0.000000
     10         13.439725   0.000000
     11         13.439725   0.000000
     12         16.806428   0.000000
     13         16.806428   0.000000
     14         16.806428   0.000000
     15         20.774053   0.000000
     16         28.702898   0.000000
     17         28.702898   0.000000
     18         28.702898   0.000000
     19         29.887986   0.000000
     20         29.887986   0.000000
     21         31.347318   0.000000
     22         31.347319   0.000000
     23         31.347319   0.000000
     24         34.846543   0.000000
     25         34.846543   0.000000
     26         34.846543   0.000000
     27         40.495473   0.000000
     28         40.495473   0.000000
     29         40.495473   0.000000
     30         43.671082   0.000000
     31         44.276440   0.000000
     32         44.276441   0.000000
     33         46.152444   0.000000
     34         46.152444   0.000000
     35         47.678381   0.000000
     36         47.678381   0.000000
     37         47.678384   0.000000
     38         49.443201   0.000000
     39         49.443210   0.000000
     40         49.443264   0.000000
     41         50.038959   0.000000
     42         50.441419   0.000000
     43         50.441440   0.000000
     44         50.442012   0.000000
     45         50.533756   0.000000
     46         50.533832   0.000000
     47         50.535092   0.000000
     48         51.890159   0.000000

  0.2631579E-01  0.2631579E-01  0.2631579E-01  0.1000000E-01
      1         -6.181155   1.000000
      2          5.653707   1.000000
      3          5.747600   1.000000
      4          5.747600   1.000000
      5          8.283408   0.000000
      6          8.283408   0.000000
      7          8.286929   0.000000
      8          9.070356   0.000000
      9         13.412610   0.000000
     10         13.412610   0.000000
     11         13.465354   0.000000
     12         16.768495   0.000000
     13         16.873189   0.000000
     14         16.873189   0.000000
     15         20.842179   0.000000
     16         28.605120   0.000000
     17         28.634769   0.000000
     18         28.634769   0.000000
     19         29.823018   0.000000
     20         29.823018   0.000000
     21         31.431232   0.000000
     22         31.431232   0.000000
     23         31.463685   0.000000
     24         34.858468   0.000000
     25         34.979758   0.000000
     26         34.979758   0.000000
     27         40.385200   0.000000
     28         40.508529   0.000000
     29         40.508529   0.000000
     30         43.722115   0.000000
     31         44.217094   0.000000
     32         44.217094   0.000000
     33         46.030732   0.000000
     34         46.030732   0.000000
     35         47.690612   0.000000
     36         47.690612   0.000000
     37         47.720536   0.000000
     38         49.297891   0.000000
     39         49.361866   0.000000
     40         49.361927   0.000000
     41         50.193958   0.000000
     42         50.204483   0.000000
     43         50.302230   0.000000
     44         50.302535   0.000000
     45         50.476381   0.000000
     46         50.720781   0.000000
     47         50.721248   0.000000
     48         52.263466   0.000000

  0.5263158E-01  0.5263158E-01  0.5263158E-01  0.1000000E-01
      1         -6.153935   1.000000
      2          5.363782   1.000000
      3          5.701526   1.000000
      4          5.701526   1.000000
      5          8.316857   0.000000
      6          8.350465   0.000000
      7          8.350465   0.000000
      8          9.279973   0.000000
      9         13.317919   0.000000
     10         13.317919   0.000000
     11         13.587132   0.000000
     12         16.657044   0.000000
     13         17.056275   0.000000
     14         17.056275   0.000000
     15         21.036977   0.000000
     16         28.289903   0.000000
     17         28.338504   0.000000
     18         28.338504   0.000000
     19         29.663682   0.000000
     20         29.663682   0.000000
     21         31.578230   0.000000
     22         31.578230   0.000000
     23         31.737581   0.000000
     24         34.883425   0.000000
     25         35.342171   0.000000
     26         35.342171   0.000000
     27         39.976036   0.000000
     28         40.428421   0.000000
     29         40.428421   0.000000
     30         43.847428   0.000000
     31         43.937350   0.000000
     32         43.937351   0.000000
     33         45.646871   0.000000
     34         45.646871   0.000000
     35         47.673928   0.000000
     36         47.673930   0.000000
     37         47.794582   0.000000
     38         49.048264   0.000000
     39         49.273524   0.000000
     40         49.273525   0.000000
     41         49.563154   0.000000
     42         50.097548   0.000000
     43         50.097551   0.000000
     44         50.250407   0.000000
     45         50.780775   0.000000
     46         51.142885   0.000000
     47         51.142987   0.000000
     48         52.974450   0.000000

  0.7894737E-01  0.7894737E-01  0.7894737E-01  0.1000000E-01
      1         -6.108641   1.000000
      2          4.965002   1.000000
      3          5.631160   1.000000
      4          5.631160   1.000000
      5          8.299036   0.000000
      6          8.453530   0.000000
      7          8.453530   0.000000
      8          9.617342   0.000000
      9         13.185759   0.000000
     10         13.185759   0.000000
     11         13.779901   0.000000
     12         16.500533   0.000000
     13         17.337693   0.000000
     14         17.337693   0.000000
     15         21.336548   0.000000
     16         27.842188   0.000000
     17         27.842188   0.000000
     18         27.860655   0.000000
     19         29.567889   0.000000
     20         29.567889   0.000000
     21         31.717649   0.000000
     22         31.717649   0.000000
     23         32.099922   0.000000
     24         34.924868   0.000000
     25         35.879797   0.000000
     26         35.879797   0.000000
     27         39.385249   0.000000
     28         40.300824   0.000000
     29         40.300824   0.000000
     30         43.493047   0.000000
     31         43.493047   0.000000
     32         44.001943   0.000000
     33         45.118950   0.000000
     34         45.118950   0.000000
     35         47.595260   0.000000
     36         47.595260   0.000000
     37         47.813585   0.000000
     38         48.855080   0.000000
     39         48.888613   0.000000
     40         49.319627   0.000000
     41         49.319628   0.000000
     42         50.010232   0.000000
     43         50.010234   0.000000
     44         50.154410   0.000000
     45         51.292531   0.000000
     46         51.674521   0.000000
     47         51.674973   0.000000
     48         53.468342   0.000000

  0.1052632E+00  0.1052632E+00  0.1052632E+00  0.1000000E-01
      1         -6.045418   1.000000
      2          4.508926   1.000000
      3          5.543578   1.000000
      4          5.543578   1.000000
      5          8.238815   0.000000
      6          8.581866   0.000000
      7          8.581866   0.000000
      8         10.031356   0.000000
      9         13.041379   0.000000
     10         13.041379   0.000000
     11         14.026324   0.000000
     12         16.332958   0.000000
     13         17.694986   0.000000
     14         17.694986   0.000000
     15         21.715901   0.000000
     16         27.219073   0.000000
     17         27.219073   0.000000
     18         27.372482   0.000000
     19         29.536256   0.000000
     20         29.536256   0.000000
     21         31.832060   0.000000
     22         31.832060   0.000000
     23         32.497405   0.000000
     24         34.982500   0.000000
     25         36.525830   0.000000
     26         36.525830   0.000000
     27         38.677403   0.000000
     28         40.131350   0.000000
     29         40.131350   0.000000
     30         42.896594   0.000000
     31         42.896595   0.000000
     32         44.153583   0.000000
     33         44.569117   0.000000
     34         44.569117   0.000000
     35         47.466361   0.000000
     36         47.466361   0.000000
     37         47.647072   0.000000
     38         48.216950   0.000000
     39         48.808020   0.000000
     40         49.419734   0.000000
     41         49.419734   0.000000
     42         50.021630   0.000000
     43         50.105497   0.000000
     44         50.105497   0.000000
     45         51.818050   0.000000
     46         52.276025   0.000000
     47         52.276191   0.000000
     48         52.598787   0.000000

  0.1315789E+00  0.1315789E+00  0.1315789E+00  0.1000000E-01
      1         -5.964430   1.000000
      2          4.025164   1.000000
      3          5.445650   1.000000
      4          5.445650   1.000000
      5          8.153345   0.000000
      6          8.723383   0.000000
      7          8.723383   0.000000
      8         10.482963   0.000000
      9         12.907568   0.000000
     10         12.907568   0.000000
     11         14.294564   0.000000
     12         16.200537   0.000000
     13         18.109578   0.000000
     14         18.109578   0.000000
     15         22.153795   0.000000
     16         26.536274   0.000000
     17         26.536274   0.000000
     18         26.867435   0.000000
     19         29.542363   0.000000
     20         29.542363   0.000000
     21         31.927810   0.000000
     22         31.927810   0.000000
     23         32.914757   0.000000
     24         35.055898   0.000000
     25         37.226188   0.000000
     26         37.226188   0.000000
     27         37.897548   0.000000
     28         39.927332   0.000000
     29         39.927333   0.000000
     30         42.178256   0.000000
     31         42.178257   0.000000
     32         44.081962   0.000000
     33         44.081962   0.000000
     34         44.283905   0.000000
     35         47.262720   0.000000
     36         47.319123   0.000000
     37         47.319123   0.000000
     38         47.560939   0.000000
     39         48.896954   0.000000
     40         49.472599   0.000000
     41         49.472599   0.000000
     42         49.874650   0.000000
     43         50.401616   0.000000
     44         50.401617   0.000000
     45         51.493994   0.000000
     46         52.788812   0.000000
     47         52.933354   0.000000
     48         52.933911   0.000000

  0.1578947E+00  0.1578947E+00  0.1578947E+00  0.1000000E-01
      1         -5.866041   1.000000
      2          3.529251   1.000000
      3          5.342826   1.000000
      4          5.342826   1.000000
      5          8.053863   0.000000
      6          8.865242   0.000000
      7          8.865242   0.000000
      8         10.948841   0.000000
      9         12.803511   0.000000
     10         12.803511   0.000000
     11         14.525750   0.000000
     12         16.163190   0.000000
     13         18.566140   0.000000
     14         18.566140   0.000000
     15         22.624060   0.000000
     16         25.826088   0.000000
     17         25.826088   0.000000
     18         26.350615   0.000000
     19         29.567952   0.000000
     20         29.567952   0.000000
     21         32.012029   0.000000
     22         32.012029   0.000000
     23         33.303588   0.000000
     24         35.144429   0.000000
     25         37.077311   0.000000
     26         37.884409   0.000000
     27         37.884409   0.000000
     28         39.698877   0.000000
     29         39.698877   0.000000
     30         41.403430   0.000000
     31         41.403430   0.000000
     32         43.695418   0.000000
     33         43.695418   0.000000
     34         44.373470   0.000000
     35         46.703430   0.000000
     36         46.925745   0.000000
     37         47.173597   0.000000
     38         47.173597   0.000000
     39         49.044027   0.000000
     40         49.484795   0.000000
     41         49.484796   0.000000
     42         49.718625   0.000000
     43         50.824503   0.000000
     44         50.824504   0.000000
     45         50.847411   0.000000
     46         53.526249   0.000000
     47         53.633615   0.000000
     48         53.633654   0.000000

  0.1842105E+00  0.1842105E+00  0.1842105E+00  0.1000000E-01
      1         -5.750581   1.000000
      2          3.031384   1.000000
      3          5.239553   1.000000
      4          5.239553   1.000000
      5          7.948471   0.000000
      6          8.994933   0.000000
      7          8.994933   0.000000
      8         11.417611   0.000000
      9         12.745805   0.000000
     10         12.745805   0.000000
     11         14.643673   0.000000
     12         16.302358   0.000000
     13         19.051989   0.000000
     14         19.051989   0.000000
     15         23.095018   0.000000
     16         25.114328   0.000000
     17         25.114328   0.000000
     18         25.867272   0.000000
     19         29.605258   0.000000
     20         29.605258   0.000000
     21         32.090434   0.000000
     22         32.090434   0.000000
     23         33.653969   0.000000
     24         35.247296   0.000000
     25         36.248820   0.000000
     26         38.359924   0.000000
     27         38.359924   0.000000
     28         39.486780   0.000000
     29         39.486780   0.000000
     30         40.674416   0.000000
     31         40.674416   0.000000
     32         43.442914   0.000000
     33         43.442914   0.000000
     34         44.406565   0.000000
     35         46.002144   0.000000
     36         46.314270   0.000000
     37         47.039513   0.000000
     38         47.039513   0.000000
     39         49.214512   0.000000
     40         49.478909   0.000000
     41         49.478909   0.000000
     42         49.554863   0.000000
     43         50.372163   0.000000
     44         51.310768   0.000000
     45         51.310774   0.000000
     46         54.332962   0.000000
     47         54.364019   0.000000
     48         54.386956   0.000000

  0.2105263E+00  0.2105263E+00  0.2105263E+00  0.1000000E-01
      1         -5.618534   1.000000
      2          2.537852   1.000000
      3          5.139338   1.000000
      4          5.139338   1.000000
      5          7.842451   0.000000
      6          9.101575   0.000000
      7          9.101575   0.000000
      8         11.881502   0.000000
      9         12.748939   0.000000
     10         12.748939   0.000000
     11         14.631000   0.000000
     12         16.635945   0.000000
     13         19.554250   0.000000
     14         19.554250   0.000000
     15         23.491557   0.000000
     16         24.424332   0.000000
     17         24.424332   0.000000
     18         25.493686   0.000000
     19         29.650748   0.000000
     20         29.650748   0.000000
     21         32.167005   0.000000
     22         32.167005   0.000000
     23         33.904107   0.000000
     24         35.364014   0.000000
     25         35.479446   0.000000
     26         38.338043   0.000000
     27         38.338043   0.000000
     28         39.396573   0.000000
     29         39.396573   0.000000
     30         40.178003   0.000000
     31         40.178003   0.000000
     32         43.386534   0.000000
     33         43.386534   0.000000
     34         44.365742   0.000000
     35         45.200554   0.000000
     36         45.728698   0.000000
     37         46.921148   0.000000
     38         46.921148   0.000000
     39         49.249089   0.000000
     40         49.460797   0.000000
     41         49.460797   0.000000
     42         49.538863   0.000000
     43         50.091530   0.000000
     44         51.827242   0.000000
     45         51.827252   0.000000
     46         54.837825   0.000000
     47         54.875022   0.000000
     48         55.154416   0.000000

  0.2368421E+00  0.2368421E+00  0.2368421E+00  0.1000000E-01
      1         -5.470715   1.000000
      2          2.053142   1.000000
      3          5.043804   1.000000
      4          5.043804   1.000000
      5          7.739357   0.000000
      6          9.176599   0.000000
      7          9.176599   0.000000
      8         12.332514   0.000000
      9         12.820467   0.000000
     10         12.820467   0.000000
     11         14.546865   0.000000
     12         17.105107   0.000000
     13         20.045174   0.000000
     14         20.045174   0.000000
     15         23.639205   0.000000
     16         23.773634   0.000000
     17         23.773634   0.000000
     18         25.406535   0.000000
     19         29.693807   0.000000
     20         29.693807   0.000000
     21         32.239434   0.000000
     22         32.239434   0.000000
     23         33.804026   0.000000
     24         35.019916   0.000000
     25         35.492001   0.000000
     26         37.787775   0.000000
     27         37.787775   0.000000
     28         39.219222   0.000000
     29         39.219222   0.000000
     30         40.056492   0.000000
     31         40.056492   0.000000
     32         43.596594   0.000000
     33         43.596594   0.000000
     34         44.150105   0.000000
     35         44.437495   0.000000
     36         45.171076   0.000000
     37         46.820359   0.000000
     38         46.820359   0.000000
     39         49.066914   0.000000
     40         49.431373   0.000000
     41         49.431373   0.000000
     42         49.740923   0.000000
     43         49.996283   0.000000
     44         52.348912   0.000000
     45         52.348912   0.000000
     46         54.940591   0.000000
     47         54.942120   0.000000
     48         55.923085   0.000000

  0.2631579E+00  0.2631579E+00  0.2631579E+00  0.1000000E-01
      1         -5.308018   1.000000
      2          1.580877   1.000000
      3          4.954942   1.000000
      4          4.954942   1.000000
      5          7.641828   0.000000
      6          9.217747   0.000000
      7          9.217747   0.000000
      8         12.756353   0.000000
      9         12.964651   0.000000
     10         12.964651   0.000000
     11         14.455982   0.000000
     12         17.650253   0.000000
     13         20.471527   0.000000
     14         20.471527   0.000000
     15         23.223192   0.000000
     16         23.223192   0.000000
     17         23.436836   0.000000
     18         25.712394   0.000000
     19         29.730757   0.000000
     20         29.730757   0.000000
     21         32.308200   0.000000
     22         32.308200   0.000000
     23         33.167425   0.000000
     24         35.054522   0.000000
     25         35.630037   0.000000
     26         37.032598   0.000000
     27         37.032598   0.000000
     28         38.962707   0.000000
     29         38.962707   0.000000
     30         40.003582   0.000000
     31         40.003582   0.000000
     32         43.367498   0.000000
     33         44.078665   0.000000
     34         44.078665   0.000000
     35         44.153103   0.000000
     36         44.643646   0.000000
     37         46.738978   0.000000
     38         46.738978   0.000000
     39         48.886759   0.000000
     40         49.395909   0.000000
     41         49.395909   0.000000
     42         49.752363   0.000000
     43         50.249009   0.000000
     44         52.855728   0.000000
     45         52.855730   0.000000
     46         55.127136   0.000000
     47         55.127739   0.000000
     48         56.573450   0.000000

  0.2894737E+00  0.2894737E+00  0.2894737E+00  0.1000000E-01
      1         -5.131799   1.000000
      2          1.124300   1.000000
      3          4.873882   1.000000
      4          4.873882   1.000000
      5          7.551701   0.000000
      6          9.227919   0.000000
      7          9.227919   0.000000
      8         13.119513   0.000000
      9         13.179069   0.000000
     10         13.179069   0.000000
     11         14.419190   0.000000
     12         18.229164   0.000000
     13         20.699223   0.000000
     14         20.699223   0.000000
     15         22.907403   0.000000
     16         22.907403   0.000000
     17         23.059578   0.000000
     18         26.247025   0.000000
     19         29.753244   0.000000
     20         29.753244   0.000000
     21         32.334419   0.000000
     22         32.370780   0.000000
     23         32.370780   0.000000
     24         35.235310   0.000000
     25         35.775750   0.000000
     26         36.225670   0.000000
     27         36.225670   0.000000
     28         38.721887   0.000000
     29         38.721887   0.000000
     30         39.859556   0.000000
     31         39.859556   0.000000
     32         42.493379   0.000000
     33         43.921533   0.000000
     34         44.149062   0.000000
     35         44.749485   0.000000
     36         44.749485   0.000000
     37         46.681390   0.000000
     38         46.681390   0.000000
     39         48.737220   0.000000
     40         49.364077   0.000000
     41         49.364077   0.000000
     42         49.689990   0.000000
     43         50.676080   0.000000
     44         53.326785   0.000000
     45         53.326786   0.000000
     46         55.406821   0.000000
     47         55.406968   0.000000
     48         57.111529   0.000000

  0.3157895E+00  0.3157895E+00  0.3157895E+00  0.1000000E-01
      1         -4.944019   1.000000
      2          0.686711   1.000000
      3          4.801377   1.000000
      4          4.801377   1.000000
      5          7.470040   0.000000
      6          9.213854   0.000000
      7          9.213854   0.000000
      8         13.357692   0.000000
      9         13.456971   0.000000
     10         13.456971   0.000000
     11         14.513959   0.000000
     12         18.799647   0.000000
     13         20.560987   0.000000
     14         20.560987   0.000000
     15         22.659466   0.000000
     16         22.991909   0.000000
     17         22.991909   0.000000
     18         26.878039   0.000000
     19         29.748198   0.000000
     20         29.748198   0.000000
     21         31.451743   0.000000
     22         32.421194   0.000000
     23         32.421194   0.000000
     24         35.393980   0.000000
     25         35.429958   0.000000
     26         35.429958   0.000000
     27         35.926067   0.000000
     28         38.508781   0.000000
     29         38.508781   0.000000
     30         39.649779   0.000000
     31         39.649779   0.000000
     32         41.661836   0.000000
     33         43.659661   0.000000
     34         43.690596   0.000000
     35         45.492817   0.000000
     36         45.492817   0.000000
     37         46.665817   0.000000
     38         46.665817   0.000000
     39         48.617527   0.000000
     40         49.353446   0.000000
     41         49.353446   0.000000
     42         49.625800   0.000000
     43         51.178071   0.000000
     44         53.743254   0.000000
     45         53.743258   0.000000
     46         55.775032   0.000000
     47         55.775284   0.000000
     48         57.631799   0.000000

  0.3421053E+00  0.3421053E+00  0.3421053E+00  0.1000000E-01
      1         -4.747546   1.000000
      2          0.271942   1.000000
      3          4.737989   1.000000
      4          4.737989   1.000000
      5          7.397828   0.000000
      6          9.184106   0.000000
      7          9.184106   0.000000
      8         13.437808   0.000000
      9         13.792403   0.000000
     10         13.792403   0.000000
     11         14.781196   0.000000
     12         19.295484   0.000000
     13         20.132069   0.000000
     14         20.132069   0.000000
     15         22.348677   0.000000
     16         23.405451   0.000000
     17         23.405451   0.000000
     18         27.552907   0.000000
     19         29.692032   0.000000
     20         29.692032   0.000000
     21         30.551593   0.000000
     22         32.458162   0.000000
     23         32.458162   0.000000
     24         34.693997   0.000000
     25         34.693997   0.000000
     26         35.473067   0.000000
     27         36.077034   0.000000
     28         38.328107   0.000000
     29         38.328108   0.000000
     30         39.409478   0.000000
     31         39.409478   0.000000
     32         40.918597   0.000000
     33         43.272375   0.000000
     34         43.378130   0.000000
     35         46.120966   0.000000
     36         46.120967   0.000000
     37         46.794674   0.000000
     38         46.794675   0.000000
     39         48.523138   0.000000
     40         49.397529   0.000000
     41         49.397529   0.000000
     42         49.567937   0.000000
     43         51.736568   0.000000
     44         54.110965   0.000000
     45         54.110965   0.000000
     46         56.220480   0.000000
     47         56.220502   0.000000
     48         57.974352   0.000000

  0.3684211E+00  0.3684211E+00  0.3684211E+00  0.1000000E-01
      1         -4.546551   1.000000
      2         -0.114668   1.000000
      3          4.684282   1.000000
      4          4.684282   1.000000
      5          7.336665   0.000000
      6          9.146564   0.000000
      7          9.146564   0.000000
      8         13.420808   0.000000
      9         14.173779   0.000000
     10         14.173779   0.000000
     11         15.162071   0.000000
     12         19.586122   0.000000
     13         19.586122   0.000000
     14         19.597170   0.000000
     15         22.263073   0.000000
     16         23.973204   0.000000
     17         23.973204   0.000000
     18         28.235157   0.000000
     19         29.583435   0.000000
     20         29.583435   0.000000
     21         29.685489   0.000000
     22         32.464539   0.000000
     23         32.464539   0.000000
     24         34.062237   0.000000
     25         34.062237   0.000000
     26         35.429015   0.000000
     27         36.227757   0.000000
     28         38.179395   0.000000
     29         38.179395   0.000000
     30         39.174557   0.000000
     31         39.174557   0.000000
     32         40.314232   0.000000
     33         42.899557   0.000000
     34         43.093992   0.000000
     35         46.338283   0.000000
     36         46.338283   0.000000
     37         47.273811   0.000000
     38         47.273812   0.000000
     39         48.451121   0.000000
     40         49.517092   0.000000
     41         49.565421   0.000000
     42         49.565421   0.000000
     43         52.333518   0.000000
     44         54.385772   0.000000
     45         54.385773   0.000000
     46         56.699917   0.000000
     47         56.699933   0.000000
     48         58.334892   0.000000

  0.3947368E+00  0.3947368E+00  0.3947368E+00  0.1000000E-01
      1         -4.347792   1.000000
      2         -0.466098   1.000000
      3          4.639961   1.000000
      4          4.639961   1.000000
      5          7.285802   0.000000
      6          9.107737   0.000000
      7          9.107737   0.000000
      8         13.371028   0.000000
      9         14.592603   0.000000
     10         14.592603   0.000000
     11         15.589155   0.000000
     12         18.999649   0.000000
     13         18.999649   0.000000
     14         19.599708   0.000000
     15         22.501382   0.000000
     16         24.610043   0.000000
     17         24.610043   0.000000
     18         28.566360   0.000000
     19         29.184000   0.000000
     20         29.366057   0.000000
     21         29.366057   0.000000
     22         32.414145   0.000000
     23         32.414145   0.000000
     24         33.585233   0.000000
     25         33.585233   0.000000
     26         35.217776   0.000000
     27         36.363670   0.000000
     28         38.063545   0.000000
     29         38.063545   0.000000
     30         38.951094   0.000000
     31         38.951094   0.000000
     32         39.881066   0.000000
     33         42.578356   0.000000
     34         42.821228   0.000000
     35         46.365908   0.000000
     36         46.365908   0.000000
     37         47.741132   0.000000
     38         47.741132   0.000000
     39         48.396054   0.000000
     40         49.468584   0.000000
     41         49.948236   0.000000
     42         49.948236   0.000000
     43         52.951130   0.000000
     44         54.560300   0.000000
     45         54.560301   0.000000
     46         57.166395   0.000000
     47         57.166452   0.000000
     48         58.631272   0.000000

  0.4210526E+00  0.4210526E+00  0.4210526E+00  0.1000000E-01
      1         -4.161455   1.000000
      2         -0.771559   1.000000
      3          4.605463   1.000000
      4          4.605463   1.000000
      5          7.245991   0.000000
      6          9.072900   0.000000
      7          9.072900   0.000000
      8         13.318759   0.000000
      9         15.047218   0.000000
     10         15.047218   0.000000
     11         16.026864   0.000000
     12         18.410051   0.000000
     13         18.410051   0.000000
     14         19.365319   0.000000
     15         23.015974   0.000000
     16         25.285238   0.000000
     17         25.285238   0.000000
     18         27.818181   0.000000
     19         29.026141   0.000000
     20         29.026141   0.000000
     21         29.766365   0.000000
     22         32.304127   0.000000
     23         32.304127   0.000000
     24         33.299126   0.000000
     25         33.299126   0.000000
     26         34.850704   0.000000
     27         36.481704   0.000000
     28         37.988616   0.000000
     29         37.988616   0.000000
     30         38.757499   0.000000
     31         38.757499   0.000000
     32         39.625449   0.000000
     33         42.316157   0.000000
     34         42.577409   0.000000
     35         46.365892   0.000000
     36         46.365892   0.000000
     37         48.008624   0.000000
     38         48.008624   0.000000
     39         48.356190   0.000000
     40         49.428573   0.000000
     41         50.566156   0.000000
     42         50.566156   0.000000
     43         53.569734   0.000000
     44         54.611461   0.000000
     45         54.611462   0.000000
     46         57.580455   0.000000
     47         57.581136   0.000000
     48         58.768829   0.000000

  0.4473684E+00  0.4473684E+00  0.4473684E+00  0.1000000E-01
      1         -4.003120   1.000000
      2         -1.015213   1.000000
      3          4.580756   1.000000
      4          4.580756   1.000000
      5          7.217507   0.000000
      6          9.045560   0.000000
      7          9.045560   0.000000
      8         13.276187   0.000000
      9         15.519358   0.000000
     10         15.519358   0.000000
     11         16.443001   0.000000
     12         17.835112   0.000000
     13         17.835112   0.000000
     14         19.034558   0.000000
     15         23.684832   0.000000
     16         25.973333   0.000000
     17         25.973333   0.000000
     18         26.970269   0.000000
     19         28.560114   0.000000
     20         28.560114   0.000000
     21         30.418596   0.000000
     22         32.176002   0.000000
     23         32.176002   0.000000
     24         33.165662   0.000000
     25         33.165662   0.000000
     26         34.385947   0.000000
     27         36.573970   0.000000
     28         37.940767   0.000000
     29         37.940767   0.000000
     30         38.600963   0.000000
     31         38.600963   0.000000
     32         39.507921   0.000000
     33         42.120889   0.000000
     34         42.380727   0.000000
     35         46.361067   0.000000
     36         46.361067   0.000000
     37         48.124662   0.000000
     38         48.124662   0.000000
     39         48.329281   0.000000
     40         49.398095   0.000000
     41         51.295983   0.000000
     42         51.295983   0.000000
     43         54.143704   0.000000
     44         54.472578   0.000000
     45         54.472578   0.000000
     46         57.888276   0.000000
     47         57.890108   0.000000
     48         58.493853   0.000000

  0.4736842E+00  0.4736842E+00  0.4736842E+00  0.1000000E-01
      1         -3.893655   1.000000
      2         -1.175979   1.000000
      3          4.565923   1.000000
      4          4.565923   1.000000
      5          7.200320   0.000000
      6          9.028240   0.000000
      7          9.028240   0.000000
      8         13.248948   0.000000
      9         15.987233   0.000000
     10         15.987233   0.000000
     11         16.781434   0.000000
     12         17.304813   0.000000
     13         17.304813   0.000000
     14         18.729536   0.000000
     15         24.418442   0.000000
     16         26.141482   0.000000
     17         26.659991   0.000000
     18         26.659991   0.000000
     19         27.995166   0.000000
     20         27.995166   0.000000
     21         30.951768   0.000000
     22         32.085570   0.000000
     23         32.085570   0.000000
     24         33.113588   0.000000
     25         33.113588   0.000000
     26         33.947466   0.000000
     27         36.633033   0.000000
     28         37.919005   0.000000
     29         37.919005   0.000000
     30         38.497465   0.000000
     31         38.497465   0.000000
     32         39.465680   0.000000
     33         42.000018   0.000000
     34         42.251500   0.000000
     35         46.357385   0.000000
     36         46.357385   0.000000
     37         48.169908   0.000000
     38         48.169908   0.000000
     39         48.313756   0.000000
     40         49.378952   0.000000
     41         51.968714   0.000000
     42         51.968714   0.000000
     43         54.188401   0.000000
     44         54.188402   0.000000
     45         54.581920   0.000000
     46         58.078808   0.000000
     47         58.105918   0.000000
     48         58.138156   0.000000

  0.5000000E+00  0.5000000E+00  0.5000000E+00  0.1000000E-01
      1         -3.854038   1.000000
      2         -1.232752   1.000000
      3          4.560867   1.000000
      4          4.560867   1.000000
      5          7.194581   0.000000
      6          9.021393   0.000000
      7          9.021393   0.000000
      8         13.239559   0.000000
      9         16.274697   0.000000
     10         16.274697   0.000000
     11         16.925267   0.000000
     12         16.993795   0.000000
     13         16.993795   0.000000
     14         18.594395   0.000000
     15         24.991352   0.000000
     16         25.538461   0.000000
     17         27.220925   0.000000
     18         27.220925   0.000000
     19         27.465721   0.000000
     20         27.465721   0.000000
     21         31.178297   0.000000
     22         32.051266   0.000000
     23         32.051266   0.000000
     24         33.099147   0.000000
     25         33.099147   0.000000
     26         33.749235   0.000000
     27         36.653215   0.000000
     28         37.912447   0.000000
     29         37.912447   0.000000
     30         38.457227   0.000000
     31         38.457227   0.000000
     32         39.456823   0.000000
     33         41.958699   0.000000
     34         42.205945   0.000000
     35         46.355569   0.000000
     36         46.355569   0.000000
     37         48.179888   0.000000
     38         48.179888   0.000000
     39         48.308125   0.000000
     40         49.371681   0.000000
     41         52.270098   0.000000
     42         52.270098   0.000000
     43         53.992429   0.000000
     44         53.992429   0.000000
     45         54.755533   0.000000
     46         57.980656   0.000000
     47         58.144936   0.000000
     48         58.152543   0.000000
