    2    2    1    1
  0.2016476E+02  0.3849279E-09  0.3849279E-09  0.3849279E-09  0.5000000E-15
   1.0000000000000000E-004
  CAR 
 unknown system                          
      8    120      8

  0.1262379E-14  0.1262379E-14  0.1262379E-14  0.2962963E-03
      1         -6.155080   1.000000
      2          5.754252   1.000000
      3          5.754253   1.000000
      4          5.754253   1.000000
      5          8.318997   0.000000
      6          8.318997   0.000000
      7          8.318997   0.000000
      8          9.044021   0.000000

  0.6666667E-01  0.1262729E-14  0.1262729E-14  0.2370370E-02
      1         -6.097067   1.000000
      2          5.162939   1.000000
      3          5.660886   1.000000
      4          5.660887   1.000000
      5          8.374107   0.000000
      6          8.459425   0.000000
      7          8.459425   0.000000
      8          9.484919   0.000000

  0.1333333E+00  0.1266230E-14  0.1266230E-14  0.2370370E-02
      1         -5.924299   1.000000
      2          4.006161   1.000000
      3          5.437448   1.000000
      4          5.437449   1.000000
      5          8.213223   0.000000
      6          8.787089   0.000000
      7          8.787089   0.000000
      8         10.555088   0.000000

  0.2000000E+00  0.1252870E-14  0.1238992E-14  0.2370370E-02
      1         -5.640673   1.000000
      2          2.756940   1.000000
      3          5.180596   1.000000
      4          5.180597   1.000000
      5          7.956650   0.000000
      6          9.117334   0.000000
      7          9.117334   0.000000
      8         11.751300   0.000000

  0.2666667E+00  0.1241918E-14  0.1241918E-14  0.2370370E-02
      1         -5.255070   1.000000
      2          1.548914   1.000000
      3          4.946601   1.000000
      4          4.946602   1.000000
      5          7.704820   0.000000
      6          9.283077   0.000000
      7          9.283077   0.000000
      8         12.889660   0.000000

  0.3333333E+00  0.1246870E-14  0.1191359E-14  0.2370370E-02
      1         -4.787296   1.000000
      2          0.444346   1.000000
      3          4.761439   1.000000
      4          4.761439   1.000000
      5          7.497494   0.000000
      6          9.267269   0.000000
      7          9.267269   0.000000
      8         13.598220   0.000000

  0.4000000E+00  0.1288719E-14  0.1288719E-14  0.2370370E-02
      1         -4.288294   1.000000
      2         -0.486443   1.000000
      3          4.635604   1.000000
      4          4.635604   1.000000
      5          7.354719   0.000000
      6          9.179617   0.000000
      7          9.179617   0.000000
      8         13.586847   0.000000

  0.4666667E+00  0.1284802E-14  0.1284802E-14  0.2370370E-02
      1         -3.902829   1.000000
      2         -1.089727   1.000000
      3          4.572137   1.000000
      4          4.572137   1.000000
      5          7.281720   0.000000
      6          9.114635   0.000000
      7          9.114635   0.000000
      8         13.491610   0.000000

  0.6666667E-01  0.6666667E-01  0.1257020E-14  0.1777778E-02
      1         -6.077700   1.000000
      2          5.280080   1.000000
      3          5.463896   1.000000
      4          5.463896   1.000000
      5          8.139255   0.000000
      6          8.707287   0.000000
      7          8.707287   0.000000
      8          9.496116   0.000000

  0.1333333E+00  0.6666667E-01  0.1249043E-14  0.7111111E-02
      1         -5.943024   1.000000
      2          4.348519   1.000000
      3          5.187067   1.000000
      4          5.359639   1.000000
      5          8.138710   0.000000
      6          8.797073   0.000000
      7          9.106983   0.000000
      8         10.259328   0.000000

  0.2000000E+00  0.6666667E-01  0.1266230E-14  0.7111111E-02
      1         -5.695851   1.000000
      2          3.151472   1.000000
      3          4.913856   1.000000
      4          5.142642   1.000000
      5          8.233503   0.000000
      6          8.788533   0.000000
      7          9.494917   0.000000
      8         11.102519   0.000000

  0.2666667E+00  0.6666667E-01  0.1245835E-14  0.7111111E-02
      1         -5.343061   1.000000
      2          1.944776   1.000000
      3          4.686980   1.000000
      4          4.869647   1.000000
      5          8.105824   0.000000
      6          8.962213   0.000000
      7          9.705095   0.000000
      8         11.548036   0.000000

  0.3333333E+00  0.6666667E-01  0.1241918E-14  0.7111111E-02
      1         -4.899429   1.000000
      2          0.812560   1.000000
      3          4.526496   1.000000
      4          4.607724   1.000000
      5          7.917088   0.000000
      6          9.047510   0.000000
      7          9.689385   0.000000
      8         12.111782   0.000000

  0.4000000E+00  0.6666667E-01  0.1227106E-14  0.7111111E-02
      1         -4.401432   1.000000
      2         -0.179854   1.000000
      3          4.387320   1.000000
      4          4.439707   1.000000
      5          7.763031   0.000000
      6          9.029394   0.000000
      7          9.548113   0.000000
      8         12.921352   0.000000

  0.4666667E+00  0.6666667E-01  0.1260963E-14  0.7111111E-02
      1         -3.951385   1.000000
      2         -0.916044   1.000000
      3          4.222955   1.000000
      4          4.427474   1.000000
      5          7.669931   0.000000
      6          9.014597   0.000000
      7          9.394458   0.000000
      8         13.556809   0.000000

 -0.4666667E+00  0.6666667E-01  0.1307918E-14  0.7111111E-02
      1         -3.797067   1.000000
      2         -1.142011   1.000000
      3          4.123625   1.000000
      4          4.486883   1.000000
      5          7.645768   0.000000
      6          9.063114   0.000000
      7          9.288919   0.000000
      8         13.688840   0.000000

 -0.4000000E+00  0.6666667E-01  0.1304002E-14  0.7111111E-02
      1         -4.084801   1.000000
      2         -0.710228   1.000000
      3          4.095353   1.000000
      4          4.612361   1.000000
      5          7.692437   0.000000
      6          9.184168   0.000000
      7          9.248521   0.000000
      8         13.666824   0.000000

 -0.3333333E+00  0.6666667E-01  0.1298059E-14  0.7111111E-02
      1         -4.570108   1.000000
      2          0.131916   1.000000
      3          4.142943   1.000000
      4          4.796169   1.000000
      5          7.807748   0.000000
      6          9.248454   0.000000
      7          9.347509   0.000000
      8         13.279069   0.000000

 -0.2666667E+00  0.6666667E-01  0.1256369E-14  0.7111111E-02
      1         -5.056424   1.000000
      2          1.179142   1.000000
      3          4.269851   1.000000
      4          5.026931   1.000000
      5          7.986622   0.000000
      6          9.212965   0.000000
      7          9.468407   0.000000
      8         12.533063   0.000000

 -0.2000000E+00  0.6666667E-01  0.1260444E-14  0.7111111E-02
      1         -5.472181   1.000000
      2          2.339645   1.000000
      3          4.476355   1.000000
      4          5.284095   1.000000
      5          8.212100   0.000000
      6          9.037881   0.000000
      7          9.394637   0.000000
      8         11.812393   0.000000

 -0.1333333E+00  0.6666667E-01  0.1247658E-14  0.7111111E-02
      1         -5.790741   1.000000
      2          3.538700   1.000000
      3          4.764549   1.000000
      4          5.527770   1.000000
      5          8.449319   0.000000
      6          8.733732   0.000000
      7          9.051416   0.000000
      8         11.019826   0.000000

 -0.6666667E-01  0.6666667E-01  0.1271497E-14  0.3555556E-02
      1         -6.000787   1.000000
      2          4.601642   1.000000
      3          5.171145   1.000000
      4          5.682628   1.000000
      5          8.479497   0.000000
      6          8.592468   0.000000
      7          8.613453   0.000000
      8         10.095914   0.000000

  0.1333333E+00  0.1333333E+00  0.1251662E-14  0.1777778E-02
      1         -5.846428   1.000000
      2          4.278838   1.000000
      3          4.878919   1.000000
      4          4.878920   1.000000
      5          7.711921   0.000000
      6          9.575992   0.000000
      7          9.575992   0.000000
      8         10.132828   0.000000

  0.2000000E+00  0.1333333E+00  0.1256078E-14  0.7111111E-02
      1         -5.636486   1.000000
      2          3.393428   1.000000
      3          4.587818   1.000000
      4          4.663217   1.000000
      5          7.678967   0.000000
      6          9.622210   0.000000
      7         10.047305   0.000000
      8         10.394251   0.000000

  0.2666667E+00  0.1333333E+00  0.1233465E-14  0.7111111E-02
      1         -5.318324   1.000000
      2          2.288395   1.000000
      3          4.353532   1.000000
      4          4.377077   1.000000
      5          7.874184   0.000000
      6          9.538657   0.000000
      7         10.354473   0.000000
      8         10.415494   0.000000

  0.3333333E+00  0.1333333E+00  0.1233983E-14  0.7111111E-02
      1         -4.903052   1.000000
      2          1.184700   1.000000
      3          4.047928   1.000000
      4          4.194599   1.000000
      5          7.976134   0.000000
      6          9.543845   0.000000
      7         10.398969   0.000000
      8         10.631123   0.000000

  0.4000000E+00  0.1333333E+00  0.1224180E-14  0.7111111E-02
      1         -4.416782   1.000000
      2          0.171387   1.000000
      3          3.741175   1.000000
      4          4.119049   1.000000
      5          7.952625   0.000000
      6          9.470145   0.000000
      7         10.255128   0.000000
      8         11.348933   0.000000

  0.4666667E+00  0.1333333E+00  0.1238001E-14  0.7111111E-02
      1         -3.930633   1.000000
      2         -0.652223   1.000000
      3          3.488366   1.000000
      4          4.127939   1.000000
      5          7.926155   0.000000
      6          9.386075   0.000000
      7         10.052777   0.000000
      8         12.373164   0.000000

 -0.4666667E+00  0.1333333E+00  0.1293826E-14  0.7111111E-02
      1         -3.642832   1.000000
      2         -1.075112   1.000000
      3          3.306223   1.000000
      4          4.218345   1.000000
      5          7.957913   0.000000
      6          9.358790   0.000000
      7          9.871690   0.000000
      8         13.488536   0.000000

 -0.4000000E+00  0.1333333E+00  0.1272171E-14  0.7111111E-02
      1         -3.801855   1.000000
      2         -0.844789   1.000000
      3          3.206257   1.000000
      4          4.383949   1.000000
      5          8.061470   0.000000
      6          9.407615   0.000000
      7          9.742878   0.000000
      8         13.928153   0.000000

 -0.3333333E+00  0.1333333E+00  0.1276246E-14  0.7111111E-02
      1         -4.254630   1.000000
      2         -0.117814   1.000000
      3          3.198200   1.000000
      4          4.613523   1.000000
      5          8.227362   0.000000
      6          9.523708   0.000000
      7          9.653259   0.000000
      8         13.088306   0.000000

 -0.2666667E+00  0.1333333E+00  0.1300085E-14  0.7111111E-02
      1         -4.752113   1.000000
      2          0.842071   1.000000
      3          3.295429   1.000000
      4          4.887703   1.000000
      5          8.437007   0.000000
      6          9.535395   0.000000
      7          9.642674   0.000000
      8         12.185285   0.000000

 -0.2000000E+00  0.1333333E+00  0.1247500E-14  0.7111111E-02
      1         -5.194082   1.000000
      2          1.891583   1.000000
      3          3.526338   1.000000
      4          5.174813   1.000000
      5          8.657822   0.000000
      6          9.291575   0.000000
      7          9.573156   0.000000
      8         11.566421   0.000000

 -0.1333333E+00  0.1333333E+00  0.1234714E-14  0.3555556E-02
      1         -5.545116   1.000000
      2          2.863387   1.000000
      3          3.984013   1.000000
      4          5.417677   1.000000
      5          8.789832   0.000000
      6          8.955659   0.000000
      7          9.199319   0.000000
      8         11.327578   0.000000

  0.2000000E+00  0.2000000E+00  0.1246303E-14  0.1777778E-02
      1         -5.463632   1.000000
      2          3.129232   1.000000
      3          4.279515   1.000000
      4          4.279515   1.000000
      5          7.225377   0.000000
      6          9.638759   0.000000
      7         10.638452   0.000000
      8         10.638452   0.000000

  0.2666667E+00  0.2000000E+00  0.1246251E-14  0.7111111E-02
      1         -5.180987   1.000000
      2          2.353866   1.000000
      3          3.969468   1.000000
      4          4.029446   1.000000
      5          7.216792   0.000000
      6          9.270117   0.000000
      7         10.913774   0.000000
      8         11.101292   0.000000

  0.3333333E+00  0.2000000E+00  0.1237900E-14  0.7111111E-02
      1         -4.796849   1.000000
      2          1.411444   1.000000
      3          3.563594   1.000000
      4          3.858055   1.000000
      5          7.431084   0.000000
      6          9.284881   0.000000
      7         10.834350   0.000000
      8         11.278321   0.000000

  0.4000000E+00  0.2000000E+00  0.1226948E-14  0.7111111E-02
      1         -4.330004   1.000000
      2          0.463595   1.000000
      3          3.148646   1.000000
      4          3.774074   1.000000
      5          7.538836   0.000000
      6          9.842714   0.000000
      7         10.671120   0.000000
      8         11.186364   0.000000

  0.4666667E+00  0.2000000E+00  0.1223032E-14  0.7111111E-02
      1         -3.829572   1.000000
      2         -0.378675   1.000000
      3          2.789973   1.000000
      4          3.780576   1.000000
      5          7.573357   0.000000
      6         10.496543   0.000000
      7         10.827825   0.000000
      8         10.974878   0.000000

 -0.4666667E+00  0.2000000E+00  0.1297742E-14  0.7111111E-02
      1         -3.441396   1.000000
      2         -0.938879   1.000000
      3          2.516564   1.000000
      4          3.875987   1.000000
      5          7.653492   0.000000
      6         10.396545   0.000000
      7         10.750707   0.000000
      8         12.007343   0.000000

 -0.4000000E+00  0.2000000E+00  0.1293826E-14  0.7111111E-02
      1         -3.453878   1.000000
      2         -0.917633   1.000000
      3          2.345291   1.000000
      4          4.053916   1.000000
      5          7.818241   0.000000
      6         10.347067   0.000000
      7         10.559008   0.000000
      8         13.310406   0.000000

 -0.3333333E+00  0.2000000E+00  0.1270145E-14  0.7111111E-02
      1         -3.852787   1.000000
      2         -0.335586   1.000000
      3          2.295432   1.000000
      4          4.303257   1.000000
      5          8.065556   0.000000
      6         10.349582   0.000000
      7         10.386250   0.000000
      8         12.971552   0.000000

 -0.2666667E+00  0.2000000E+00  0.1276246E-14  0.7111111E-02
      1         -4.352080   1.000000
      2          0.483628   1.000000
      3          2.406337   1.000000
      4          4.603017   1.000000
      5          8.364839   0.000000
      6         10.149634   0.000000
      7         10.340481   0.000000
      8         11.979917   0.000000

 -0.2000000E+00  0.2000000E+00  0.1298059E-14  0.3555556E-02
      1         -4.814630   1.000000
      2          1.290919   1.000000
      3          2.778855   1.000000
      4          4.915751   1.000000
      5          8.639855   0.000000
      6          9.744862   0.000000
      7         10.059257   0.000000
      8         11.473927   0.000000

  0.2666667E+00  0.2666667E+00  0.1240945E-14  0.1777778E-02
      1         -4.933524   1.000000
      2          1.940785   1.000000
      3          3.760423   1.000000
      4          3.760423   1.000000
      5          6.799291   0.000000
      6          8.649152   0.000000
      7         11.791313   0.000000
      8         11.791313   0.000000

  0.3333333E+00  0.2666667E+00  0.1244130E-14  0.7111111E-02
      1         -4.581910   1.000000
      2          1.253325   1.000000
      3          3.408252   1.000000
      4          3.569301   1.000000
      5          6.842397   0.000000
      6          8.340844   0.000000
      7         12.078424   0.000000
      8         12.208964   0.000000

  0.4000000E+00  0.2666667E+00  0.1247343E-14  0.7111111E-02
      1         -4.139683   1.000000
      2          0.483541   1.000000
      3          2.892268   1.000000
      4          3.467343   1.000000
      5          7.053296   0.000000
      6          8.544428   0.000000
      7         12.020665   0.000000
      8         12.256174   0.000000

  0.4666667E+00  0.2666667E+00  0.1225114E-14  0.7111111E-02
      1         -3.640583   1.000000
      2         -0.268926   1.000000
      3          2.385191   1.000000
      4          3.458396   1.000000
      5          7.146980   0.000000
      6          9.320357   0.000000
      7         11.878034   0.000000
      8         12.079107   0.000000

 -0.4666667E+00  0.2666667E+00  0.1192663E-14  0.7111111E-02
      1         -3.186661   1.000000
      2         -0.867605   1.000000
      3          1.979638   1.000000
      4          3.542274   1.000000
      5          7.241376   0.000000
      6         10.414178   0.000000
      7         11.758841   0.000000
      8         11.836961   0.000000

 -0.4000000E+00  0.2666667E+00  0.1282031E-14  0.7111111E-02
      1         -3.057374   1.000000
      2         -1.018611   1.000000
      3          1.716596   1.000000
      4          3.714302   1.000000
      5          7.418866   0.000000
      6         11.403073   0.000000
      7         11.591566   0.000000
      8         11.962836   0.000000

 -0.3333333E+00  0.2666667E+00  0.1258350E-14  0.7111111E-02
      1         -3.387190   1.000000
      2         -0.605206   1.000000
      3          1.638030   1.000000
      4          3.964432   1.000000
      5          7.689833   0.000000
      6         11.313815   0.000000
      7         11.462479   0.000000
      8         12.875666   0.000000

 -0.2666667E+00  0.2666667E+00  0.1309944E-14  0.3555556E-02
      1         -3.878042   1.000000
      2         -0.005997   1.000000
      3          1.831447   1.000000
      4          4.272764   1.000000
      5          8.030761   0.000000
      6         10.838365   0.000000
      7         11.181308   0.000000
      8         12.076523   0.000000

  0.3333333E+00  0.3333333E+00  0.1235586E-14  0.1777778E-02
      1         -4.262314   1.000000
      2          0.752586   1.000000
      3          3.355752   1.000000
      4          3.355752   1.000000
      5          6.496536   0.000000
      6          7.761764   0.000000
      7         12.998275   0.000000
      8         12.998275   0.000000

  0.4000000E+00  0.3333333E+00  0.1242391E-14  0.7111111E-02
      1         -3.847500   1.000000
      2          0.130495   1.000000
      3          3.006202   1.000000
      4          3.230602   1.000000
      5          6.600430   0.000000
      6          7.586469   0.000000
      7         13.309753   0.000000
      8         13.357424   0.000000

  0.4666667E+00  0.3333333E+00  0.1252352E-14  0.7111111E-02
      1         -3.360174   1.000000
      2         -0.498964   1.000000
      3          2.439913   1.000000
      4          3.199710   1.000000
      5          6.783673   0.000000
      6          8.033550   0.000000
      7         13.269423   0.000000
      8         13.297614   0.000000

 -0.4666667E+00  0.3333333E+00  0.1196580E-14  0.7111111E-02
      1         -2.869725   1.000000
      2         -1.050518   1.000000
      3          1.891692   1.000000
      4          3.263789   1.000000
      5          6.889566   0.000000
      6          9.011866   0.000000
      7         13.064741   0.000000
      8         13.137639   0.000000

 -0.4000000E+00  0.3333333E+00  0.1192663E-14  0.7111111E-02
      1         -2.632656   1.000000
      2         -1.285019   1.000000
      3          1.502547   1.000000
      4          3.419756   1.000000
      5          7.062335   0.000000
      6         10.241237   0.000000
      7         12.754581   0.000000
      8         13.008717   0.000000

 -0.3333333E+00  0.3333333E+00  0.1262267E-14  0.3555556E-02
      1         -2.913787   1.000000
      2         -0.994631   1.000000
      3          1.379033   1.000000
      4          3.659000   1.000000
      5          7.334220   0.000000
      6         11.559395   0.000000
      7         12.218104   0.000000
      8         12.804735   0.000000

  0.4000000E+00  0.4000000E+00  0.1230228E-14  0.1777778E-02
      1         -3.459290   1.000000
      2         -0.407655   1.000000
      3          3.080365   1.000000
      4          3.080365   1.000000
      5          6.352144   0.000000
      6          7.083341   0.000000
      7         14.242494   0.000000
      8         14.242494   0.000000

  0.4666667E+00  0.4000000E+00  0.1230252E-14  0.7111111E-02
      1         -2.989670   1.000000
      2         -0.973995   1.000000
      3          2.765594   1.000000
      4          3.024028   1.000000
      5          6.508531   0.000000
      6          7.066799   0.000000
      7         14.534689   0.000000
      8         14.570518   0.000000

 -0.4666667E+00  0.4000000E+00  0.1202522E-14  0.7111111E-02
      1         -2.483971   1.000000
      2         -1.488501   1.000000
      3          2.217404   1.000000
      4          3.064057   1.000000
      5          6.643695   0.000000
      6          7.778101   0.000000
      7         14.365413   0.000000
      8         14.545614   0.000000

 -0.4000000E+00  0.4000000E+00  0.1198606E-14  0.3555556E-02
      1         -2.264604   1.000000
      2         -1.660059   1.000000
      3          1.724869   1.000000
      4          3.198186   1.000000
      5          6.800796   0.000000
      6          8.910860   0.000000
      7         13.829602   0.000000
      8         14.410492   0.000000

  0.4666667E+00  0.4666667E+00  0.1224869E-14  0.1777778E-02
      1         -2.537107   1.000000
      2         -1.512684   1.000000
      3          2.941184   1.000000
      4          2.941184   1.000000
      5          6.389772   0.000000
      6          6.628516   0.000000
      7         15.464056   0.000000
      8         15.464056   0.000000

 -0.4666667E+00  0.4666667E+00  0.1206439E-14  0.3555556E-02
      1         -2.053673   1.000000
      2         -1.994538   1.000000
      3          2.685548   1.000000
      4          2.954694   1.000000
      5          6.518723   0.000000
      6          6.851525   0.000000
      7         15.440722   0.000000
      8         15.597224   0.000000

  0.2000000E+00  0.1333333E+00  0.6666667E-01  0.7111111E-02
      1         -5.770853   1.000000
      2          3.696747   1.000000
      3          4.581772   1.000000
      4          5.282400   1.000000
      5          8.123883   0.000000
      6          9.069386   0.000000
      7          9.436178   0.000000
      8         10.713373   0.000000

  0.2666667E+00  0.1333333E+00  0.6666667E-01  0.1422222E-01
      1         -5.488162   1.000000
      2          2.675476   1.000000
      3          4.141197   1.000000
      4          5.102171   1.000000
      5          8.314936   0.000000
      6          9.059214   0.000000
      7          9.829969   0.000000
      8         10.898508   0.000000

  0.3333333E+00  0.1333333E+00  0.6666667E-01  0.1422222E-01
      1         -5.103585   1.000000
      2          1.554933   1.000000
      3          3.866619   1.000000
      4          4.846083   1.000000
      5          8.365028   0.000000
      6          9.091097   0.000000
      7         10.024010   0.000000
      8         11.124083   0.000000

  0.4000000E+00  0.1333333E+00  0.6666667E-01  0.1422222E-01
      1         -4.636579   1.000000
      2          0.491564   1.000000
      3          3.691019   1.000000
      4          4.595717   1.000000
      5          8.264427   0.000000
      6          9.079471   0.000000
      7          9.994999   0.000000
      8         11.749632   0.000000

  0.4666667E+00  0.1333333E+00  0.6666667E-01  0.1422222E-01
      1         -4.137171   1.000000
      2         -0.419515   1.000000
      3          3.591075   1.000000
      4          4.399855   1.000000
      5          8.161024   0.000000
      6          8.997361   0.000000
      7          9.894517   0.000000
      8         12.677863   0.000000

 -0.4666667E+00  0.1333333E+00  0.6666667E-01  0.1422222E-01
      1         -3.749319   1.000000
      2         -1.016556   1.000000
      3          3.548369   1.000000
      4          4.291379   1.000000
      5          8.103782   0.000000
      6          8.934614   0.000000
      7          9.822160   0.000000
      8         13.642682   0.000000

  0.2666667E+00  0.2000000E+00  0.6666667E-01  0.7111111E-02
      1         -5.390502   1.000000
      2          2.729576   1.000000
      3          3.979795   1.000000
      4          4.581727   1.000000
      5          7.656526   0.000000
      6          9.682948   0.000000
      7         10.302229   0.000000
      8         10.532556   0.000000

  0.3333333E+00  0.2000000E+00  0.6666667E-01  0.1422222E-01
      1         -5.039321   1.000000
      2          1.809891   1.000000
      3          3.538085   1.000000
      4          4.378806   1.000000
      5          7.892145   0.000000
      6          9.668325   0.000000
      7         10.148571   0.000000
      8         10.904205   0.000000

  0.4000000E+00  0.2000000E+00  0.6666667E-01  0.1422222E-01
      1         -4.597254   1.000000
      2          0.817666   1.000000
      3          3.241891   1.000000
      4          4.142142   1.000000
      5          8.046955   0.000000
      6          9.779164   0.000000
      7         10.239824   0.000000
      8         11.001278   0.000000

  0.4666667E+00  0.2000000E+00  0.6666667E-01  0.1422222E-01
      1         -4.099351   1.000000
      2         -0.103437   1.000000
      3          3.023253   1.000000
      4          3.971109   1.000000
      5          8.083089   0.000000
      6          9.577693   0.000000
      7         10.887505   0.000000
      8         11.113601   0.000000

 -0.4666667E+00  0.2000000E+00  0.6666667E-01  0.1422222E-01
      1         -3.646132   1.000000
      2         -0.807600   1.000000
      3          2.854982   1.000000
      4          3.912480   1.000000
      5          8.128511   0.000000
      6          9.380536   0.000000
      7         10.803543   0.000000
      8         12.208365   0.000000

 -0.4000000E+00  0.2000000E+00  0.6666667E-01  0.1422222E-01
      1         -3.491986   1.000000
      2         -1.023051   1.000000
      3          2.740183   1.000000
      4          3.973461   1.000000
      5          8.240007   0.000000
      6          9.242224   0.000000
      7         10.730086   0.000000
      8         13.445329   0.000000

 -0.3333333E+00  0.2000000E+00  0.6666667E-01  0.1422222E-01
      1         -3.787814   1.000000
      2         -0.596065   1.000000
      3          2.698257   1.000000
      4          4.138544   1.000000
      5          8.421388   0.000000
      6          9.174140   0.000000
      7         10.701428   0.000000
      8         12.552028   0.000000

 -0.2666667E+00  0.2000000E+00  0.6666667E-01  0.1422222E-01
      1         -4.275597   1.000000
      2          0.203235   1.000000
      3          2.754234   1.000000
      4          4.382877   1.000000
      5          8.645154   0.000000
      6          9.154784   0.000000
      7         10.677679   0.000000
      8         11.536314   0.000000

 -0.2000000E+00  0.2000000E+00  0.6666667E-01  0.1422222E-01
      1         -4.760012   1.000000
      2          1.137909   1.000000
      3          2.949094   1.000000
      4          4.670528   1.000000
      5          8.830694   0.000000
      6          9.096499   0.000000
      7         10.562860   0.000000
      8         10.861966   0.000000

 -0.1333333E+00  0.2000000E+00  0.6666667E-01  0.7111111E-02
      1         -5.172591   1.000000
      2          2.022944   1.000000
      3          3.379098   1.000000
      4          4.942424   1.000000
      5          8.643654   0.000000
      6          9.117762   0.000000
      7         10.263152   0.000000
      8         10.673088   0.000000

  0.3333333E+00  0.2666667E+00  0.6666667E-01  0.7111111E-02
      1         -4.864370   1.000000
      2          1.708101   1.000000
      3          3.463792   1.000000
      4          3.902278   1.000000
      5          7.240057   0.000000
      6          8.918380   0.000000
      7         11.084700   0.000000
      8         11.722987   0.000000

  0.4000000E+00  0.2666667E+00  0.6666667E-01  0.1422222E-01
      1         -4.451074   1.000000
      2          0.917966   1.000000
      3          3.010319   1.000000
      4          3.693235   1.000000
      5          7.505877   0.000000
      6          8.968999   0.000000
      7         10.932654   0.000000
      8         12.073437   0.000000

  0.4666667E+00  0.2666667E+00  0.6666667E-01  0.1422222E-01
      1         -3.965726   1.000000
      2          0.095664   1.000000
      3          2.616970   1.000000
      4          3.542205   1.000000
      5          7.648602   0.000000
      6          9.594829   0.000000
      7         10.700683   0.000000
      8         12.100904   0.000000

 -0.4666667E+00  0.2666667E+00  0.6666667E-01  0.1422222E-01
      1         -3.476756   1.000000
      2         -0.624636   1.000000
      3          2.290849   1.000000
      4          3.510778   1.000000
      5          7.728117   0.000000
      6         10.355674   0.000000
      7         10.731920   0.000000
      8         12.001442   0.000000

 -0.4000000E+00  0.2666667E+00  0.6666667E-01  0.1422222E-01
      1         -3.189585   1.000000
      2         -1.001394   1.000000
      3          2.055509   1.000000
      4          3.597861   1.000000
      5          7.865230   0.000000
      6         10.218252   0.000000
      7         11.822708   0.000000
      8         11.976393   0.000000

 -0.3333333E+00  0.2666667E+00  0.6666667E-01  0.1422222E-01
      1         -3.369597   1.000000
      2         -0.761671   1.000000
      3          1.938881   1.000000
      4          3.787184   1.000000
      5          8.088560   0.000000
      6         10.069127   0.000000
      7         11.768091   0.000000
      8         12.504907   0.000000

 -0.2666667E+00  0.2666667E+00  0.6666667E-01  0.1422222E-01
      1         -3.831976   1.000000
      2         -0.118442   1.000000
      3          1.985561   1.000000
      4          4.056728   1.000000
      5          8.387879   0.000000
      6          9.915796   0.000000
      7         11.376910   0.000000
      8         11.714225   0.000000

 -0.2000000E+00  0.2666667E+00  0.6666667E-01  0.7111111E-02
      1         -4.325641   1.000000
      2          0.585023   1.000000
      3          2.288286   1.000000
      4          4.372042   1.000000
      5          8.718614   0.000000
      6          9.550891   0.000000
      7         10.819405   0.000000
      8         11.291204   0.000000

  0.4000000E+00  0.3333333E+00  0.6666667E-01  0.7111111E-02
      1         -4.199497   1.000000
      2          0.639886   1.000000
      3          3.070249   1.000000
      4          3.356934   1.000000
      5          6.938136   0.000000
      6          8.076180   0.000000
      7         12.149182   0.000000
      8         12.965940   0.000000

  0.4666667E+00  0.3333333E+00  0.6666667E-01  0.1422222E-01
      1         -3.734228   1.000000
      2         -0.024826   1.000000
      3          2.589392   1.000000
      4          3.191944   1.000000
      5          7.217841   0.000000
      6          8.319973   0.000000
      7         11.955934   0.000000
      8         13.307164   0.000000

 -0.4666667E+00  0.3333333E+00  0.6666667E-01  0.1422222E-01
      1         -3.231654   1.000000
      2         -0.661140   1.000000
      3          2.088504   1.000000
      4          3.163638   1.000000
      5          7.344427   0.000000
      6          9.173947   0.000000
      7         11.710295   0.000000
      8         13.296934   0.000000

 -0.4000000E+00  0.3333333E+00  0.6666667E-01  0.1422222E-01
      1         -2.845502   1.000000
      2         -1.101418   1.000000
      3          1.699194   1.000000
      4          3.254321   1.000000
      5          7.482860   0.000000
      6         10.321830   0.000000
      7         11.498254   0.000000
      8         13.159287   0.000000

 -0.3333333E+00  0.3333333E+00  0.6666667E-01  0.1422222E-01
      1         -2.910504   1.000000
      2         -1.019810   1.000000
      3          1.494562   1.000000
      4          3.447923   1.000000
      5          7.708769   0.000000
      6         11.108391   0.000000
      7         11.812649   0.000000
      8         12.550752   0.000000

 -0.2666667E+00  0.3333333E+00  0.6666667E-01  0.7111111E-02
      1         -3.341021   1.000000
      2         -0.558723   1.000000
      3          1.557001   1.000000
      4          3.725543   1.000000
      5          8.022565   0.000000
      6         10.771519   0.000000
      7         11.636835   0.000000
      8         12.517523   0.000000

  0.4666667E+00  0.4000000E+00  0.6666667E-01  0.7111111E-02
      1         -3.406571   1.000000
      2         -0.444064   1.000000
      3          2.816017   1.000000
      4          2.976305   1.000000
      5          6.785262   0.000000
      6          7.437506   0.000000
      7         13.276502   0.000000
      8         14.236901   0.000000

 -0.4666667E+00  0.4000000E+00  0.6666667E-01  0.1422222E-01
      1         -2.905907   1.000000
      2         -1.003267   1.000000
      3          2.316084   1.000000
      4          2.903397   1.000000
      5          7.046475   0.000000
      6          7.917207   0.000000
      7         13.057396   0.000000
      8         14.545034   0.000000

 -0.4000000E+00  0.4000000E+00  0.6666667E-01  0.1422222E-01
      1         -2.457788   1.000000
      2         -1.442038   1.000000
      3          1.794940   1.000000
      4          2.985217   1.000000
      5          7.183392   0.000000
      6          8.968097   0.000000
      7         12.800460   0.000000
      8         14.002382   0.000000

 -0.3333333E+00  0.4000000E+00  0.6666667E-01  0.7111111E-02
      1         -2.487817   1.000000
      2         -1.386241   1.000000
      3          1.471657   1.000000
      4          3.171962   1.000000
      5          7.397794   0.000000
      6         10.243312   0.000000
      7         12.393533   0.000000
      8         12.870609   0.000000

 -0.4666667E+00  0.4666667E+00  0.6666667E-01  0.7111111E-02
      1         -2.500711   1.000000
      2         -1.503429   1.000000
      3          2.711140   1.000000
      4          2.762529   1.000000
      5          6.805137   0.000000
      6          7.017185   0.000000
      7         14.454727   0.000000
      8         15.331151   0.000000

 -0.4000000E+00  0.4666667E+00  0.6666667E-01  0.7111111E-02
      1         -2.076563   1.000000
      2         -1.886391   1.000000
      3          2.221869   1.000000
      4          2.810321   1.000000
      5          6.990963   0.000000
      6          7.780259   0.000000
      7         14.138280   0.000000
      8         14.325523   0.000000

  0.4000000E+00  0.2666667E+00  0.1333333E+00  0.7111111E-02
      1         -4.659223   1.000000
      2          1.186634   1.000000
      3          2.871251   1.000000
      4          4.174112   1.000000
      5          8.262842   0.000000
      6          9.638708   0.000000
      7          9.897723   0.000000
      8         11.538828   0.000000

  0.4666667E+00  0.2666667E+00  0.1333333E+00  0.1422222E-01
      1         -4.196035   1.000000
      2          0.413315   1.000000
      3          2.473675   1.000000
      4          3.893560   1.000000
      5          8.586250   0.000000
      6          9.573295   0.000000
      7         10.050442   0.000000
      8         11.900318   0.000000

 -0.4666667E+00  0.2666667E+00  0.1333333E+00  0.1422222E-01
      1         -3.695995   1.000000
      2         -0.362512   1.000000
      3          2.275942   1.000000
      4          3.652629   1.000000
      5          8.715452   0.000000
      6          9.270671   0.000000
      7         10.959169   0.000000
      8         11.980469   0.000000

 -0.4000000E+00  0.2666667E+00  0.1333333E+00  0.1422222E-01
      1         -3.298635   1.000000
      2         -0.914790   1.000000
      3          2.196604   1.000000
      4          3.516292   1.000000
      5          8.833829   0.000000
      6          9.017184   0.000000
      7         11.963548   0.000000
      8         12.147492   0.000000

  0.4666667E+00  0.3333333E+00  0.1333333E+00  0.7111111E-02
      1         -4.014904   1.000000
      2          0.330109   1.000000
      3          2.500812   1.000000
      4          3.413398   1.000000
      5          7.974811   0.000000
      6          8.924728   0.000000
      7         10.695468   0.000000
      8         12.870913   0.000000

 -0.4666667E+00  0.3333333E+00  0.1333333E+00  0.1422222E-01
      1         -3.519152   1.000000
      2         -0.316384   1.000000
      3          2.126992   1.000000
      4          3.158247   1.000000
      5          8.297655   0.000000
      6          9.471655   0.000000
      7         10.420018   0.000000
      8         13.242509   0.000000

 -0.4000000E+00  0.3333333E+00  0.1333333E+00  0.1422222E-01
      1         -3.057128   1.000000
      2         -0.883881   1.000000
      3          1.870686   1.000000
      4          3.040807   1.000000
      5          8.440427   0.000000
      6         10.019136   0.000000
      7         10.674133   0.000000
      8         13.292823   0.000000

 -0.3333333E+00  0.3333333E+00  0.1333333E+00  0.1422222E-01
      1         -2.905016   1.000000
      2         -1.058749   1.000000
      3          1.726519   1.000000
      4          3.086339   1.000000
      5          8.626872   0.000000
      6          9.844191   0.000000
      7         11.834009   0.000000
      8         12.297457   0.000000

 -0.2666667E+00  0.3333333E+00  0.1333333E+00  0.1422222E-01
      1         -3.228764   1.000000
      2         -0.676388   1.000000
      3          1.729620   1.000000
      4          3.274159   1.000000
      5          8.892306   0.000000
      6          9.661849   0.000000
      7         10.957678   0.000000
      8         13.107322   0.000000

 -0.2000000E+00  0.3333333E+00  0.1333333E+00  0.7111111E-02
      1         -3.720847   1.000000
      2         -0.098424   1.000000
      3          1.954013   1.000000
      4          3.564690   1.000000
      5          9.224210   0.000000
      6          9.297499   0.000000
      7         10.172593   0.000000
      8         12.724611   0.000000

 -0.4666667E+00  0.4000000E+00  0.1333333E+00  0.7111111E-02
      1         -3.254788   1.000000
      2         -0.566891   1.000000
      3          2.290640   1.000000
      4          2.812129   1.000000
      5          7.818154   0.000000
      6          8.356270   0.000000
      7         11.678858   0.000000
      8         14.218830   0.000000

 -0.4000000E+00  0.4000000E+00  0.1333333E+00  0.1422222E-01
      1         -2.759445   1.000000
      2         -1.083469   1.000000
      3          1.920778   1.000000
      4          2.652106   1.000000
      5          8.111459   0.000000
      6          9.145903   0.000000
      7         11.397667   0.000000
      8         13.743205   0.000000

 -0.3333333E+00  0.4000000E+00  0.1333333E+00  0.1422222E-01
      1         -2.483021   1.000000
      2         -1.351278   1.000000
      3          1.606654   1.000000
      4          2.724055   1.000000
      5          8.292864   0.000000
      6         10.305071   0.000000
      7         11.201451   0.000000
      8         12.341848   0.000000

 -0.2666667E+00  0.4000000E+00  0.1333333E+00  0.7111111E-02
      1         -2.752754   1.000000
      2         -1.081067   1.000000
      3          1.509321   1.000000
      4          2.946094   1.000000
      5          8.554030   0.000000
      6         10.611315   0.000000
      7         11.209944   0.000000
      8         11.929392   0.000000

 -0.4000000E+00  0.4666667E+00  0.1333333E+00  0.7111111E-02
      1         -2.402275   1.000000
      2         -1.491464   1.000000
      3          2.259380   1.000000
      4          2.427096   1.000000
      5          7.817409   0.000000
      6          7.991216   0.000000
      7         12.776068   0.000000
      8         13.969223   0.000000

 -0.3333333E+00  0.4666667E+00  0.1333333E+00  0.7111111E-02
      1         -2.099012   1.000000
      2         -1.743406   1.000000
      3          1.853872   1.000000
      4          2.473038   1.000000
      5          8.047549   0.000000
      6          9.037062   0.000000
      7         12.440498   0.000000
      8         12.594019   0.000000

 -0.4000000E+00  0.4000000E+00  0.2000000E+00  0.7111111E-02
      1         -3.024582   1.000000
      2         -0.789076   1.000000
      3          1.808033   1.000000
      4          2.788115   1.000000
      5          9.151622   0.000000
      6          9.534085   0.000000
      7         10.174713   0.000000
      8         13.525149   0.000000

 -0.3333333E+00  0.4000000E+00  0.2000000E+00  0.1422222E-01
      1         -2.596402   1.000000
      2         -1.215663   1.000000
      3          1.667803   1.000000
      4          2.568414   1.000000
      5          9.411718   0.000000
      6          9.754900   0.000000
      7         10.706124   0.000000
      8         12.083828   0.000000

 -0.3333333E+00  0.4666667E+00  0.2000000E+00  0.7111111E-02
      1         -2.273698   1.000000
      2         -1.515501   1.000000
      3          1.882223   1.000000
      4          2.206976   1.000000
      5          9.140269   0.000000
      6          9.277549   0.000000
      7         11.115597   0.000000
      8         12.258230   0.000000

 -0.2666667E+00  0.4666667E+00  0.2000000E+00  0.7111111E-02
      1         -2.161496   1.000000
      2         -1.604532   1.000000
      3          1.728370   1.000000
      4          2.226333   1.000000
      5          9.389540   0.000000
      6         10.277163   0.000000
      7         10.958587   0.000000
      8         11.020814   0.000000
