    6    6    1    1
  0.1663438E+02  0.5246040E-09  0.5246040E-09  0.4187590E-09  0.5000000E-15
   1.0000000000000000E-004
  CAR 
 unknown system                          
     69    180     88

  0.0000000E+00  0.0000000E+00  0.0000000E+00  0.5555556E-02
      1        -11.941383   1.000000
      2        -11.940935   1.000000
      3        -11.824361   1.000000
      4        -11.824265   1.000000
      5        -11.765223   1.000000
      6        -11.764999   1.000000
      7        -11.738373   1.000000
      8        -11.738330   1.000000
      9        -11.705858   1.000000
     10        -11.705844   1.000000
     11        -11.689294   1.000000
     12        -11.689256   1.000000
     13        -10.923535   1.000000
     14        -10.923041   1.000000
     15        -10.831627   1.000000
     16        -10.831544   1.000000
     17        -10.830418   1.000000
     18        -10.830324   1.000000
     19        -10.720590   1.000000
     20        -10.720444   1.000000
     21        -10.705557   1.000000
     22        -10.705188   1.000000
     23        -10.701740   1.000000
     24        -10.701708   1.000000
     25        -10.698085   1.000000
     26        -10.698030   1.000000
     27        -10.653584   1.000000
     28        -10.653507   1.000000
     29        -10.623088   1.000000
     30        -10.623034   1.000000
     31         -1.520693   1.000000
     32         -1.519557   1.000000
     33          3.166755   1.000000
     34          3.175876   1.000000
     35          4.752467   1.000000
     36          4.753605   1.000000
     37          5.752031   1.000000
     38          5.754833   1.000000
     39          5.960060   1.000000
     40          5.962480   1.000000
     41          6.536196   1.000000
     42          6.548489   1.000000
     43          6.933899   1.000000
     44          6.942330   1.000000
     45          7.135926   1.000000
     46          7.137777   1.000000
     47          7.416347   1.000000
     48          7.417925   1.000000
     49          7.491883   1.000000
     50          7.492746   1.000000
     51          7.837554   1.000000
     52          7.847168   1.000000
     53          8.063980   1.000000
     54          8.096484   1.000000
     55          8.268623   1.000000
     56          8.273643   1.000000
     57          8.414517   1.000000
     58          8.463176   1.000000
     59          9.332717   0.999998
     60          9.344487   0.999997
     61          9.409706   0.999973
     62          9.418541   0.999964
     63          9.541095   0.999052
     64          9.591252   0.997034
     65          9.601352   0.996320
     66          9.637684   0.992307
     67          9.692904   0.978959
     68          9.722504   0.965879
     69         10.477911   0.000217
     70         10.492959   0.000145
     71         10.638567   0.000002
     72         10.695796   0.000000
     73         11.355053   0.000000
     74         11.363985   0.000000
     75         11.483472   0.000000
     76         11.505569   0.000000
     77         12.955930   0.000000
     78         12.964023   0.000000
     79         13.567487   0.000000
     80         13.568355   0.000000
     81         15.040461   0.000000
     82         15.040803   0.000000
     83         15.408825   0.000000
     84         15.409354   0.000000
     85         16.018015   0.000000
     86         16.019009   0.000000
     87         16.612974   0.000000
     88         16.635192   0.000000

  0.2631579E-01  0.0000000E+00  0.0000000E+00  0.5555556E-02
      1        -11.941361   1.000000
      2        -11.940914   1.000000
      3        -11.824280   1.000000
      4        -11.824184   1.000000
      5        -11.765219   1.000000
      6        -11.764995   1.000000
      7        -11.738657   1.000000
      8        -11.738615   1.000000
      9        -11.705781   1.000000
     10        -11.705768   1.000000
     11        -11.689260   1.000000
     12        -11.689222   1.000000
     13        -10.923527   1.000000
     14        -10.923033   1.000000
     15        -10.831488   1.000000
     16        -10.831404   1.000000
     17        -10.830437   1.000000
     18        -10.830340   1.000000
     19        -10.720408   1.000000
     20        -10.720262   1.000000
     21        -10.705706   1.000000
     22        -10.705505   1.000000
     23        -10.704457   1.000000
     24        -10.704272   1.000000
     25        -10.695271   1.000000
     26        -10.695236   1.000000
     27        -10.653516   1.000000
     28        -10.653439   1.000000
     29        -10.623105   1.000000
     30        -10.623052   1.000000
     31         -1.515464   1.000000
     32         -1.514328   1.000000
     33          3.163631   1.000000
     34          3.172741   1.000000
     35          4.703530   1.000000
     36          4.704421   1.000000
     37          5.769691   1.000000
     38          5.771564   1.000000
     39          5.958757   1.000000
     40          5.960582   1.000000
     41          6.537335   1.000000
     42          6.549562   1.000000
     43          6.933091   1.000000
     44          6.941032   1.000000
     45          7.152323   1.000000
     46          7.154140   1.000000
     47          7.427179   1.000000
     48          7.428803   1.000000
     49          7.494721   1.000000
     50          7.495800   1.000000
     51          7.837836   1.000000
     52          7.847585   1.000000
     53          8.065135   1.000000
     54          8.097922   1.000000
     55          8.266336   1.000000
     56          8.271258   1.000000
     57          8.416087   1.000000
     58          8.464842   1.000000
     59          9.334701   0.999998
     60          9.346081   0.999996
     61          9.410942   0.999972
     62          9.419132   0.999964
     63          9.541090   0.999052
     64          9.592675   0.996941
     65          9.602641   0.996218
     66          9.639385   0.992049
     67          9.695922   0.977857
     68          9.724772   0.964647
     69         10.478038   0.000217
     70         10.493716   0.000142
     71         10.647414   0.000001
     72         10.704852   0.000000
     73         11.359540   0.000000
     74         11.368173   0.000000
     75         11.488524   0.000000
     76         11.510632   0.000000
     77         12.960270   0.000000
     78         12.968385   0.000000
     79         13.565228   0.000000
     80         13.566098   0.000000
     81         15.029168   0.000000
     82         15.029504   0.000000
     83         15.396658   0.000000
     84         15.397246   0.000000
     85         16.001210   0.000000
     86         16.002517   0.000000
     87         16.450895   0.000000
     88         16.459443   0.000000

  0.5263158E-01  0.0000000E+00  0.0000000E+00  0.5555556E-02
      1        -11.941347   1.000000
      2        -11.940899   1.000000
      3        -11.824030   1.000000
      4        -11.823935   1.000000
      5        -11.765258   1.000000
      6        -11.765034   1.000000
      7        -11.739574   1.000000
      8        -11.739535   1.000000
      9        -11.705636   1.000000
     10        -11.705624   1.000000
     11        -11.689191   1.000000
     12        -11.689153   1.000000
     13        -10.923587   1.000000
     14        -10.923091   1.000000
     15        -10.831193   1.000000
     16        -10.831093   1.000000
     17        -10.830433   1.000000
     18        -10.830323   1.000000
     19        -10.720017   1.000000
     20        -10.719877   1.000000
     21        -10.709575   1.000000
     22        -10.709544   1.000000
     23        -10.704831   1.000000
     24        -10.704443   1.000000
     25        -10.691527   1.000000
     26        -10.691500   1.000000
     27        -10.653422   1.000000
     28        -10.653346   1.000000
     29        -10.623187   1.000000
     30        -10.623135   1.000000
     31         -1.499726   1.000000
     32         -1.498590   1.000000
     33          3.153963   1.000000
     34          3.163034   1.000000
     35          4.573832   1.000000
     36          4.574194   1.000000
     37          5.785388   1.000000
     38          5.787616   1.000000
     39          5.974839   1.000000
     40          5.978278   1.000000
     41          6.540794   1.000000
     42          6.552820   1.000000
     43          6.934016   1.000000
     44          6.940784   1.000000
     45          7.195796   1.000000
     46          7.197270   1.000000
     47          7.456292   1.000000
     48          7.458156   1.000000
     49          7.505426   1.000000
     50          7.507258   1.000000
     51          7.838689   1.000000
     52          7.848852   1.000000
     53          8.068734   1.000000
     54          8.102422   1.000000
     55          8.259450   1.000000
     56          8.264080   1.000000
     57          8.420830   1.000000
     58          8.469848   1.000000
     59          9.340320   0.999997
     60          9.350482   0.999996
     61          9.414748   0.999968
     62          9.421124   0.999962
     63          9.540268   0.999071
     64          9.593954   0.996856
     65          9.607560   0.995808
     66          9.645554   0.991046
     67          9.705067   0.974215
     68          9.731849   0.960569
     69         10.477966   0.000217
     70         10.494860   0.000137
     71         10.674660   0.000000
     72         10.732124   0.000000
     73         11.373120   0.000000
     74         11.381284   0.000000
     75         11.504463   0.000000
     76         11.526602   0.000000
     77         12.973440   0.000000
     78         12.981627   0.000000
     79         13.558239   0.000000
     80         13.559124   0.000000
     81         14.992242   0.000000
     82         14.992555   0.000000
     83         15.363278   0.000000
     84         15.364045   0.000000
     85         15.956230   0.000000
     86         15.958400   0.000000
     87         16.193552   0.000000
     88         16.202357   0.000000

  0.7894737E-01  0.0000000E+00  0.0000000E+00  0.5555556E-02
      1        -11.941250   1.000000
      2        -11.940802   1.000000
      3        -11.823578   1.000000
      4        -11.823484   1.000000
      5        -11.765263   1.000000
      6        -11.765038   1.000000
      7        -11.740983   1.000000
      8        -11.740947   1.000000
      9        -11.705284   1.000000
     10        -11.705273   1.000000
     11        -11.689077   1.000000
     12        -11.689039   1.000000
     13        -10.923567   1.000000
     14        -10.923070   1.000000
     15        -10.830995   1.000000
     16        -10.830910   1.000000
     17        -10.829950   1.000000
     18        -10.829861   1.000000
     19        -10.719443   1.000000
     20        -10.719314   1.000000
     21        -10.714204   1.000000
     22        -10.714171   1.000000
     23        -10.704128   1.000000
     24        -10.703751   1.000000
     25        -10.687847   1.000000
     26        -10.687824   1.000000
     27        -10.653099   1.000000
     28        -10.653023   1.000000
     29        -10.623316   1.000000
     30        -10.623267   1.000000
     31         -1.473488   1.000000
     32         -1.472352   1.000000
     33          3.136784   1.000000
     34          3.145767   1.000000
     35          4.394390   1.000000
     36          4.394604   1.000000
     37          5.751923   1.000000
     38          5.755299   1.000000
     39          6.034072   1.000000
     40          6.039296   1.000000
     41          6.546644   1.000000
     42          6.558332   1.000000
     43          6.942261   1.000000
     44          6.947569   1.000000
     45          7.253788   1.000000
     46          7.254345   1.000000
     47          7.492141   1.000000
     48          7.494137   1.000000
     49          7.533976   1.000000
     50          7.536566   1.000000
     51          7.840145   1.000000
     52          7.851046   1.000000
     53          8.075249   1.000000
     54          8.110608   1.000000
     55          8.247950   1.000000
     56          8.252108   1.000000
     57          8.428830   1.000000
     58          8.478233   1.000000
     59          9.348510   0.999996
     60          9.356767   0.999995
     61          9.420899   0.999962
     62          9.425870   0.999956
     63          9.536901   0.999143
     64          9.590919   0.997055
     65          9.615024   0.995108
     66          9.659530   0.988357
     67          9.720234   0.967076
     68          9.744440   0.952372
     69         10.477200   0.000221
     70         10.494628   0.000138
     71         10.720590   0.000000
     72         10.777259   0.000000
     73         11.395978   0.000000
     74         11.405051   0.000000
     75         11.534031   0.000000
     76         11.556117   0.000000
     77         12.996164   0.000000
     78         13.004481   0.000000
     79         13.545874   0.000000
     80         13.546803   0.000000
     81         14.922041   0.000000
     82         14.922311   0.000000
     83         15.317817   0.000000
     84         15.318835   0.000000
     85         15.889993   0.000000
     86         15.891300   0.000000
     87         15.935312   0.000000
     88         15.942076   0.000000

  0.1052632E+00  0.0000000E+00  0.0000000E+00  0.5555556E-02
      1        -11.941089   1.000000
      2        -11.940641   1.000000
      3        -11.822948   1.000000
      4        -11.822854   1.000000
      5        -11.765176   1.000000
      6        -11.764952   1.000000
      7        -11.742785   1.000000
      8        -11.742754   1.000000
      9        -11.704844   1.000000
     10        -11.704834   1.000000
     11        -11.688850   1.000000
     12        -11.688813   1.000000
     13        -10.923496   1.000000
     14        -10.922998   1.000000
     15        -10.830998   1.000000
     16        -10.830930   1.000000
     17        -10.828918   1.000000
     18        -10.828848   1.000000
     19        -10.720538   1.000000
     20        -10.720501   1.000000
     21        -10.716919   1.000000
     22        -10.716820   1.000000
     23        -10.702955   1.000000
     24        -10.702597   1.000000
     25        -10.684313   1.000000
     26        -10.684292   1.000000
     27        -10.652660   1.000000
     28        -10.652585   1.000000
     29        -10.623413   1.000000
     30        -10.623368   1.000000
     31         -1.436771   1.000000
     32         -1.435635   1.000000
     33          3.109980   1.000000
     34          3.118776   1.000000
     35          4.189686   1.000000
     36          4.190476   1.000000
     37          5.684533   1.000000
     38          5.687590   1.000000
     39          6.110815   1.000000
     40          6.116489   1.000000
     41          6.554899   1.000000
     42          6.566113   1.000000
     43          6.961180   1.000000
     44          6.964946   1.000000
     45          7.310420   1.000000
     46          7.311522   1.000000
     47          7.528791   1.000000
     48          7.530051   1.000000
     49          7.586590   1.000000
     50          7.588675   1.000000
     51          7.842268   1.000000
     52          7.854309   1.000000
     53          8.085557   1.000000
     54          8.123585   1.000000
     55          8.231878   1.000000
     56          8.235413   1.000000
     57          8.440165   1.000000
     58          8.490024   1.000000
     59          9.356962   0.999995
     60          9.363888   0.999993
     61          9.427916   0.999953
     62          9.436252   0.999940
     63          9.529681   0.999281
     64          9.582323   0.997558
     65          9.621272   0.994445
     66          9.683692   0.982041
     67          9.739324   0.955853
     68          9.764750   0.936330
     69         10.475774   0.000230
     70         10.492420   0.000147
     71         10.782017   0.000000
     72         10.837597   0.000000
     73         11.428461   0.000000
     74         11.441060   0.000000
     75         11.582728   0.000000
     76         11.604162   0.000000
     77         13.029492   0.000000
     78         13.038007   0.000000
     79         13.526962   0.000000
     80         13.527997   0.000000
     81         14.812700   0.000000
     82         14.812911   0.000000
     83         15.270545   0.000000
     84         15.271836   0.000000
     85         15.660351   0.000000
     86         15.669000   0.000000
     87         15.836381   0.000000
     88         15.840969   0.000000

  0.1315789E+00  0.0000000E+00  0.0000000E+00  0.5555556E-02
      1        -11.940909   1.000000
      2        -11.940460   1.000000
      3        -11.822174   1.000000
      4        -11.822082   1.000000
      5        -11.765100   1.000000
      6        -11.764878   1.000000
      7        -11.745006   1.000000
      8        -11.744980   1.000000
      9        -11.704361   1.000000
     10        -11.704350   1.000000
     11        -11.688608   1.000000
     12        -11.688572   1.000000
     13        -10.923437   1.000000
     14        -10.922937   1.000000
     15        -10.831124   1.000000
     16        -10.831060   1.000000
     17        -10.827587   1.000000
     18        -10.827525   1.000000
     19        -10.725165   1.000000
     20        -10.725135   1.000000
     21        -10.716156   1.000000
     22        -10.716024   1.000000
     23        -10.701460   1.000000
     24        -10.701126   1.000000
     25        -10.681061   1.000000
     26        -10.681040   1.000000
     27        -10.652154   1.000000
     28        -10.652081   1.000000
     29        -10.623557   1.000000
     30        -10.623517   1.000000
     31         -1.389640   1.000000
     32         -1.388505   1.000000
     33          3.069308   1.000000
     34          3.077722   1.000000
     35          3.977861   1.000000
     36          3.979347   1.000000
     37          5.601652   1.000000
     38          5.604074   1.000000
     39          6.183215   1.000000
     40          6.188944   1.000000
     41          6.565532   1.000000
     42          6.576148   1.000000
     43          6.991496   1.000000
     44          6.993767   1.000000
     45          7.352375   1.000000
     46          7.355473   1.000000
     47          7.578174   1.000000
     48          7.578985   1.000000
     49          7.649029   1.000000
     50          7.650419   1.000000
     51          7.845168   1.000000
     52          7.858890   1.000000
     53          8.101040   1.000000
     54          8.142889   1.000000
     55          8.211498   1.000000
     56          8.214272   1.000000
     57          8.454840   1.000000
     58          8.505208   1.000000
     59          9.363019   0.999994
     60          9.370721   0.999992
     61          9.437168   0.999939
     62          9.451739   0.999907
     63          9.518622   0.999453
     64          9.568194   0.998219
     65          9.624640   0.994055
     66          9.714903   0.969751
     67          9.759747   0.940626
     68          9.797021   0.902596
     69         10.474187   0.000240
     70         10.488772   0.000162
     71         10.852246   0.000000
     72         10.907392   0.000000
     73         11.471441   0.000000
     74         11.488637   0.000000
     75         11.658586   0.000000
     76         11.677672   0.000000
     77         13.075161   0.000000
     78         13.083959   0.000000
     79         13.499768   0.000000
     80         13.501018   0.000000
     81         14.667524   0.000000
     82         14.667688   0.000000
     83         15.221558   0.000000
     84         15.223426   0.000000
     85         15.413778   0.000000
     86         15.421826   0.000000
     87         15.772529   0.000000
     88         15.778545   0.000000

  0.1578947E+00  0.0000000E+00  0.0000000E+00  0.5555556E-02
      1        -11.940672   1.000000
      2        -11.940223   1.000000
      3        -11.821238   1.000000
      4        -11.821147   1.000000
      5        -11.765053   1.000000
      6        -11.764832   1.000000
      7        -11.747561   1.000000
      8        -11.747540   1.000000
      9        -11.703843   1.000000
     10        -11.703830   1.000000
     11        -11.688284   1.000000
     12        -11.688249   1.000000
     13        -10.923352   1.000000
     14        -10.922849   1.000000
     15        -10.831189   1.000000
     16        -10.831128   1.000000
     17        -10.826000   1.000000
     18        -10.825942   1.000000
     19        -10.730326   1.000000
     20        -10.730294   1.000000
     21        -10.714795   1.000000
     22        -10.714648   1.000000
     23        -10.699628   1.000000
     24        -10.699324   1.000000
     25        -10.678054   1.000000
     26        -10.678033   1.000000
     27        -10.651593   1.000000
     28        -10.651523   1.000000
     29        -10.623676   1.000000
     30        -10.623642   1.000000
     31         -1.332104   1.000000
     32         -1.330969   1.000000
     33          3.006840   1.000000
     34          3.014505   1.000000
     35          3.775126   1.000000
     36          3.777613   1.000000
     37          5.512064   1.000000
     38          5.513841   1.000000
     39          6.245351   1.000000
     40          6.250872   1.000000
     41          6.578514   1.000000
     42          6.588404   1.000000
     43          7.031846   1.000000
     44          7.032749   1.000000
     45          7.376824   1.000000
     46          7.381998   1.000000
     47          7.640252   1.000000
     48          7.642469   1.000000
     49          7.710422   1.000000
     50          7.712501   1.000000
     51          7.849055   1.000000
     52          7.865235   1.000000
     53          8.123408   1.000000
     54          8.168310   1.000000
     55          8.188228   1.000000
     56          8.190498   1.000000
     57          8.472830   1.000000
     58          8.523760   1.000000
     59          9.366354   0.999993
     60          9.374870   0.999991
     61          9.448913   0.999914
     62          9.470050   0.999846
     63          9.505545   0.999607
     64          9.549390   0.998846
     65          9.624349   0.994090
     66          9.739839   0.955512
     67          9.791738   0.908873
     68          9.842040   0.836002
     69         10.473363   0.000245
     70         10.484790   0.000181
     71         10.923530   0.000000
     72         10.979112   0.000000
     73         11.525682   0.000000
     74         11.546427   0.000000
     75         11.769120   0.000000
     76         11.783649   0.000000
     77         13.135592   0.000000
     78         13.144757   0.000000
     79         13.461966   0.000000
     80         13.463591   0.000000
     81         14.496970   0.000000
     82         14.497112   0.000000
     83         15.116816   0.000000
     84         15.122737   0.000000
     85         15.239612   0.000000
     86         15.243095   0.000000
     87         15.712048   0.000000
     88         15.719275   0.000000

  0.1842105E+00  0.0000000E+00  0.0000000E+00  0.5555556E-02
      1        -11.940424   1.000000
      2        -11.939974   1.000000
      3        -11.820129   1.000000
      4        -11.820041   1.000000
      5        -11.764994   1.000000
      6        -11.764775   1.000000
      7        -11.750355   1.000000
      8        -11.750338   1.000000
      9        -11.703368   1.000000
     10        -11.703351   1.000000
     11        -11.687925   1.000000
     12        -11.687890   1.000000
     13        -10.923269   1.000000
     14        -10.922765   1.000000
     15        -10.831189   1.000000
     16        -10.831128   1.000000
     17        -10.824237   1.000000
     18        -10.824183   1.000000
     19        -10.735581   1.000000
     20        -10.735550   1.000000
     21        -10.713314   1.000000
     22        -10.713147   1.000000
     23        -10.697432   1.000000
     24        -10.697162   1.000000
     25        -10.675320   1.000000
     26        -10.675297   1.000000
     27        -10.651086   1.000000
     28        -10.651021   1.000000
     29        -10.623775   1.000000
     30        -10.623746   1.000000
     31         -1.264199   1.000000
     32         -1.263063   1.000000
     33          2.910304   1.000000
     34          2.916711   1.000000
     35          3.599358   1.000000
     36          3.603311   1.000000
     37          5.420660   1.000000
     38          5.421852   1.000000
     39          6.297581   1.000000
     40          6.302613   1.000000
     41          6.593795   1.000000
     42          6.602819   1.000000
     43          7.079251   1.000000
     44          7.079730   1.000000
     45          7.388961   1.000000
     46          7.396332   1.000000
     47          7.703573   1.000000
     48          7.708902   1.000000
     49          7.766654   1.000000
     50          7.770444   1.000000
     51          7.854266   1.000000
     52          7.874169   1.000000
     53          8.148708   1.000000
     54          8.156043   1.000000
     55          8.166446   1.000000
     56          8.212059   1.000000
     57          8.494024   1.000000
     58          8.545576   1.000000
     59          9.367460   0.999993
     60          9.374415   0.999991
     61          9.457344   0.999892
     62          9.487352   0.999755
     63          9.496917   0.999685
     64          9.527649   0.999316
     65          9.620019   0.994584
     66          9.748797   0.949236
     67          9.844781   0.831163
     68          9.898688   0.718231
     69         10.474333   0.000239
     70         10.481651   0.000197
     71         10.990798   0.000000
     72         11.047084   0.000000
     73         11.592235   0.000000
     74         11.614970   0.000000
     75         11.915380   0.000000
     76         11.924280   0.000000
     77         13.213405   0.000000
     78         13.222924   0.000000
     79         13.411369   0.000000
     80         13.413507   0.000000
     81         14.312004   0.000000
     82         14.312180   0.000000
     83         14.915914   0.000000
     84         14.922826   0.000000
     85         15.180704   0.000000
     86         15.182783   0.000000
     87         15.654039   0.000000
     88         15.662331   0.000000

  0.2105263E+00  0.0000000E+00  0.0000000E+00  0.5555556E-02
      1        -11.940199   1.000000
      2        -11.939747   1.000000
      3        -11.818916   1.000000
      4        -11.818831   1.000000
      5        -11.764968   1.000000
      6        -11.764753   1.000000
      7        -11.753363   1.000000
      8        -11.753348   1.000000
      9        -11.702928   1.000000
     10        -11.702908   1.000000
     11        -11.687582   1.000000
     12        -11.687548   1.000000
     13        -10.923251   1.000000
     14        -10.922745   1.000000
     15        -10.831119   1.000000
     16        -10.831056   1.000000
     17        -10.822446   1.000000
     18        -10.822396   1.000000
     19        -10.740882   1.000000
     20        -10.740853   1.000000
     21        -10.711891   1.000000
     22        -10.711700   1.000000
     23        -10.694936   1.000000
     24        -10.694702   1.000000
     25        -10.672878   1.000000
     26        -10.672853   1.000000
     27        -10.650656   1.000000
     28        -10.650597   1.000000
     29        -10.623931   1.000000
     30        -10.623908   1.000000
     31         -1.185991   1.000000
     32         -1.184856   1.000000
     33          2.768980   1.000000
     34          2.773838   1.000000
     35          3.465217   1.000000
     36          3.470896   1.000000
     37          5.330583   1.000000
     38          5.331264   1.000000
     39          6.342247   1.000000
     40          6.346515   1.000000
     41          6.611282   1.000000
     42          6.619268   1.000000
     43          7.130453   1.000000
     44          7.132103   1.000000
     45          7.393928   1.000000
     46          7.403795   1.000000
     47          7.754808   1.000000
     48          7.763245   1.000000
     49          7.819356   1.000000
     50          7.824949   1.000000
     51          7.861272   1.000000
     52          7.887749   1.000000
     53          8.124640   1.000000
     54          8.125748   1.000000
     55          8.199801   1.000000
     56          8.260083   1.000000
     57          8.518326   1.000000
     58          8.570569   1.000000
     59          9.366183   0.999993
     60          9.368237   0.999992
     61          9.452146   0.999906
     62          9.491071   0.999730
     63          9.501023   0.999650
     64          9.515419   0.999495
     65          9.611758   0.995426
     66          9.748291   0.949608
     67          9.912597   0.684116
     68          9.966368   0.539441
     69         10.477912   0.000217
     70         10.480358   0.000204
     71         11.053182   0.000000
     72         11.109812   0.000000
     73         11.672821   0.000000
     74         11.696458   0.000000
     75         12.089470   0.000000
     76         12.093249   0.000000
     77         13.295696   0.000000
     78         13.300899   0.000000
     79         13.364397   0.000000
     80         13.366317   0.000000
     81         14.121445   0.000000
     82         14.121794   0.000000
     83         14.721445   0.000000
     84         14.727288   0.000000
     85         15.137668   0.000000
     86         15.139995   0.000000
     87         15.597836   0.000000
     88         15.607032   0.000000

  0.2368421E+00  0.0000000E+00  0.0000000E+00  0.5555556E-02
      1        -11.939927   1.000000
      2        -11.939475   1.000000
      3        -11.817577   1.000000
      4        -11.817495   1.000000
      5        -11.765013   1.000000
      6        -11.764808   1.000000
      7        -11.756544   1.000000
      8        -11.756532   1.000000
      9        -11.702506   1.000000
     10        -11.702482   1.000000
     11        -11.687195   1.000000
     12        -11.687162   1.000000
     13        -10.923187   1.000000
     14        -10.922680   1.000000
     15        -10.830834   1.000000
     16        -10.830768   1.000000
     17        -10.820651   1.000000
     18        -10.820606   1.000000
     19        -10.746227   1.000000
     20        -10.746200   1.000000
     21        -10.710560   1.000000
     22        -10.710343   1.000000
     23        -10.692197   1.000000
     24        -10.691998   1.000000
     25        -10.670646   1.000000
     26        -10.670619   1.000000
     27        -10.650333   1.000000
     28        -10.650281   1.000000
     29        -10.623992   1.000000
     30        -10.623968   1.000000
     31         -1.097600   1.000000
     32         -1.096464   1.000000
     33          2.585541   1.000000
     34          2.589100   1.000000
     35          3.373110   1.000000
     36          3.380236   1.000000
     37          5.244011   1.000000
     38          5.244263   1.000000
     39          6.381795   1.000000
     40          6.385059   1.000000
     41          6.630811   1.000000
     42          6.637553   1.000000
     43          7.183601   1.000000
     44          7.186488   1.000000
     45          7.394534   1.000000
     46          7.407310   1.000000
     47          7.787791   1.000000
     48          7.797283   1.000000
     49          7.859912   1.000000
     50          7.867090   1.000000
     51          7.884145   1.000000
     52          7.913142   1.000000
     53          8.090948   1.000000
     54          8.092288   1.000000
     55          8.249772   1.000000
     56          8.316707   1.000000
     57          8.545602   1.000000
     58          8.598615   1.000000
     59          9.353908   0.999995
     60          9.362596   0.999994
     61          9.440488   0.999933
     62          9.468378   0.999853
     63          9.510545   0.999553
     64          9.524651   0.999364
     65          9.600075   0.996418
     66          9.742021   0.954044
     67          9.992016   0.467191
     68         10.044755   0.324463
     69         10.481498   0.000197
     70         10.484486   0.000182
     71         11.112849   0.000000
     72         11.169264   0.000000
     73         11.769748   0.000000
     74         11.793579   0.000000
     75         12.277445   0.000000
     76         12.277794   0.000000
     77         13.236670   0.000000
     78         13.240332   0.000000
     79         13.457966   0.000000
     80         13.468176   0.000000
     81         13.934754   0.000000
     82         13.935564   0.000000
     83         14.554728   0.000000
     84         14.559015   0.000000
     85         15.091999   0.000000
     86         15.094831   0.000000
     87         15.543086   0.000000
     88         15.552986   0.000000

  0.2631579E+00  0.0000000E+00  0.0000000E+00  0.5555556E-02
      1        -11.939632   1.000000
      2        -11.939179   1.000000
      3        -11.816040   1.000000
      4        -11.815963   1.000000
      5        -11.765240   1.000000
      6        -11.765066   1.000000
      7        -11.759496   1.000000
      8        -11.759472   1.000000
      9        -11.702124   1.000000
     10        -11.702098   1.000000
     11        -11.686786   1.000000
     12        -11.686753   1.000000
     13        -10.923091   1.000000
     14        -10.922581   1.000000
     15        -10.830410   1.000000
     16        -10.830340   1.000000
     17        -10.818698   1.000000
     18        -10.818658   1.000000
     19        -10.751318   1.000000
     20        -10.751293   1.000000
     21        -10.709201   1.000000
     22        -10.708959   1.000000
     23        -10.689159   1.000000
     24        -10.688992   1.000000
     25        -10.668657   1.000000
     26        -10.668629   1.000000
     27        -10.650176   1.000000
     28        -10.650132   1.000000
     29        -10.623957   1.000000
     30        -10.623926   1.000000
     31         -0.999146   1.000000
     32         -0.998011   1.000000
     33          2.374247   1.000000
     34          2.376970   1.000000
     35          3.311188   1.000000
     36          3.319279   1.000000
     37          5.162383   1.000000
     38          5.162566   1.000000
     39          6.418045   1.000000
     40          6.420112   1.000000
     41          6.652115   1.000000
     42          6.657372   1.000000
     43          7.236593   1.000000
     44          7.240839   1.000000
     45          7.392169   1.000000
     46          7.408318   1.000000
     47          7.807088   1.000000
     48          7.816522   1.000000
     49          7.874147   1.000000
     50          7.881592   1.000000
     51          7.937189   1.000000
     52          7.953383   1.000000
     53          8.056010   1.000000
     54          8.057887   1.000000
     55          8.305449   1.000000
     56          8.378102   1.000000
     57          8.575702   1.000000
     58          8.629567   1.000000
     59          9.331547   0.999998
     60          9.353705   0.999995
     61          9.430718   0.999949
     62          9.442622   0.999928
     63          9.518177   0.999459
     64          9.531192   0.999254
     65          9.585813   0.997364
     66          9.731774   0.960614
     67         10.082016   0.236153
     68         10.133570   0.139343
     69         10.485494   0.000177
     70         10.494016   0.000141
     71         11.172717   0.000000
     72         11.228461   0.000000
     73         11.884899   0.000000
     74         11.908346   0.000000
     75         12.461834   0.000000
     76         12.464333   0.000000
     77         13.123641   0.000000
     78         13.129025   0.000000
     79         13.582909   0.000000
     80         13.593810   0.000000
     81         13.791151   0.000000
     82         13.792205   0.000000
     83         14.420659   0.000000
     84         14.423246   0.000000
     85         15.039124   0.000000
     86         15.042670   0.000000
     87         15.490060   0.000000
     88         15.500393   0.000000

  0.2894737E+00  0.0000000E+00  0.0000000E+00  0.5555556E-02
      1        -11.939392   1.000000
      2        -11.938937   1.000000
      3        -11.814349   1.000000
      4        -11.814276   1.000000
      5        -11.766287   1.000000
      6        -11.766200   1.000000
      7        -11.761724   1.000000
      8        -11.761623   1.000000
      9        -11.701838   1.000000
     10        -11.701809   1.000000
     11        -11.686421   1.000000
     12        -11.686388   1.000000
     13        -10.923074   1.000000
     14        -10.922564   1.000000
     15        -10.829936   1.000000
     16        -10.829859   1.000000
     17        -10.816779   1.000000
     18        -10.816743   1.000000
     19        -10.756215   1.000000
     20        -10.756190   1.000000
     21        -10.707950   1.000000
     22        -10.707688   1.000000
     23        -10.686047   1.000000
     24        -10.685907   1.000000
     25        -10.666957   1.000000
     26        -10.666927   1.000000
     27        -10.650267   1.000000
     28        -10.650229   1.000000
     29        -10.623915   1.000000
     30        -10.623873   1.000000
     31         -0.890778   1.000000
     32         -0.889644   1.000000
     33          2.148937   1.000000
     34          2.151170   1.000000
     35          3.267670   1.000000
     36          3.276362   1.000000
     37          5.086875   1.000000
     38          5.087357   1.000000
     39          6.452042   1.000000
     40          6.452775   1.000000
     41          6.674817   1.000000
     42          6.678326   1.000000
     43          7.287688   1.000000
     44          7.293571   1.000000
     45          7.387694   1.000000
     46          7.407626   1.000000
     47          7.818521   1.000000
     48          7.827981   1.000000
     49          7.879725   1.000000
     50          7.891792   1.000000
     51          7.981542   1.000000
     52          7.991301   1.000000
     53          8.022916   1.000000
     54          8.026412   1.000000
     55          8.363161   1.000000
     56          8.440915   1.000000
     57          8.608452   1.000000
     58          8.663248   1.000000
     59          9.301994   0.999999
     60          9.336448   0.999997
     61          9.420945   0.999962
     62          9.424362   0.999958
     63          9.520043   0.999433
     64          9.531224   0.999253
     65          9.569878   0.998150
     66          9.718846   0.967791
     67         10.181780   0.077199
     68         10.232257   0.037449
     69         10.491963   0.000149
     70         10.505787   0.000102
     71         11.235164   0.000000
     72         11.289972   0.000000
     73         12.019216   0.000000
     74         12.041726   0.000000
     75         12.629735   0.000000
     76         12.633524   0.000000
     77         12.989777   0.000000
     78         12.996470   0.000000
     79         13.516068   0.000000
     80         13.520773   0.000000
     81         13.888729   0.000000
     82         13.894060   0.000000
     83         14.319996   0.000000
     84         14.321059   0.000000
     85         14.976054   0.000000
     86         14.980558   0.000000
     87         15.440407   0.000000
     88         15.450783   0.000000

  0.3157895E+00  0.0000000E+00  0.0000000E+00  0.5555556E-02
      1        -11.939102   1.000000
      2        -11.938647   1.000000
      3        -11.812518   1.000000
      4        -11.812453   1.000000
      5        -11.768551   1.000000
      6        -11.768530   1.000000
      7        -11.762674   1.000000
      8        -11.762495   1.000000
      9        -11.701549   1.000000
     10        -11.701518   1.000000
     11        -11.686008   1.000000
     12        -11.685976   1.000000
     13        -10.922968   1.000000
     14        -10.922456   1.000000
     15        -10.829221   1.000000
     16        -10.829140   1.000000
     17        -10.814914   1.000000
     18        -10.814876   1.000000
     19        -10.760835   1.000000
     20        -10.760806   1.000000
     21        -10.706760   1.000000
     22        -10.706480   1.000000
     23        -10.682758   1.000000
     24        -10.682643   1.000000
     25        -10.665375   1.000000
     26        -10.665346   1.000000
     27        -10.650536   1.000000
     28        -10.650500   1.000000
     29        -10.623713   1.000000
     30        -10.623657   1.000000
     31         -0.772739   1.000000
     32         -0.771607   1.000000
     33          1.918622   1.000000
     34          1.920565   1.000000
     35          3.235318   1.000000
     36          3.244394   1.000000
     37          5.018602   1.000000
     38          5.019347   1.000000
     39          6.483419   1.000000
     40          6.484183   1.000000
     41          6.698437   1.000000
     42          6.699928   1.000000
     43          7.334534   1.000000
     44          7.343080   1.000000
     45          7.382749   1.000000
     46          7.406181   1.000000
     47          7.825571   1.000000
     48          7.835455   1.000000
     49          7.882605   1.000000
     50          7.898437   1.000000
     51          7.980442   1.000000
     52          7.984099   1.000000
     53          8.027348   1.000000
     54          8.033647   1.000000
     55          8.420093   1.000000
     56          8.502530   1.000000
     57          8.643672   1.000000
     58          8.699483   1.000000
     59          9.267400   1.000000
     60          9.308859   0.999999
     61          9.407289   0.999975
     62          9.419113   0.999964
     63          9.515338   0.999496
     64          9.524948   0.999360
     65          9.553160   0.998740
     66          9.704444   0.974478
     67         10.290733   0.014097
     68         10.340380   0.005454
     69         10.500302   0.000118
     70         10.518838   0.000070
     71         11.301554   0.000000
     72         11.355362   0.000000
     73         12.172565   0.000000
     74         12.193597   0.000000
     75         12.739273   0.000000
     76         12.744988   0.000000
     77         12.868931   0.000000
     78         12.875381   0.000000
     79         13.375185   0.000000
     80         13.379193   0.000000
     81         14.092738   0.000000
     82         14.098891   0.000000
     83         14.262776   0.000000
     84         14.263481   0.000000
     85         14.900054   0.000000
     86         14.905797   0.000000
     87         15.399664   0.000000
     88         15.409477   0.000000

  0.3421053E+00  0.0000000E+00  0.0000000E+00  0.5555556E-02
      1        -11.938847   1.000000
      2        -11.938391   1.000000
      3        -11.810547   1.000000
      4        -11.810489   1.000000
      5        -11.771637   1.000000
      6        -11.771590   1.000000
      7        -11.762923   1.000000
      8        -11.762716   1.000000
      9        -11.701310   1.000000
     10        -11.701276   1.000000
     11        -11.685670   1.000000
     12        -11.685637   1.000000
     13        -10.922889   1.000000
     14        -10.922375   1.000000
     15        -10.828369   1.000000
     16        -10.828283   1.000000
     17        -10.813269   1.000000
     18        -10.813221   1.000000
     19        -10.765206   1.000000
     20        -10.765168   1.000000
     21        -10.705740   1.000000
     22        -10.705446   1.000000
     23        -10.679497   1.000000
     24        -10.679404   1.000000
     25        -10.664080   1.000000
     26        -10.664050   1.000000
     27        -10.651135   1.000000
     28        -10.651097   1.000000
     29        -10.623504   1.000000
     30        -10.623436   1.000000
     31         -0.645431   1.000000
     32         -0.644303   1.000000
     33          1.688745   1.000000
     34          1.690513   1.000000
     35          3.210277   1.000000
     36          3.219611   1.000000
     37          4.958259   1.000000
     38          4.959224   1.000000
     39          6.511995   1.000000
     40          6.514234   1.000000
     41          6.721513   1.000000
     42          6.722387   1.000000
     43          7.361616   1.000000
     44          7.383289   1.000000
     45          7.392266   1.000000
     46          7.409472   1.000000
     47          7.830047   1.000000
     48          7.840526   1.000000
     49          7.883163   1.000000
     50          7.903296   1.000000
     51          7.949691   1.000000
     52          7.954543   1.000000
     53          8.053866   1.000000
     54          8.056805   1.000000
     55          8.474235   1.000000
     56          8.561033   1.000000
     57          8.681123   1.000000
     58          8.738058   1.000000
     59          9.229440   1.000000
     60          9.273178   1.000000
     61          9.398806   0.999980
     62          9.414516   0.999968
     63          9.504674   0.999615
     64          9.513848   0.999515
     65          9.536200   0.999157
     66          9.689668   0.980089
     67         10.407767   0.001255
     68         10.456742   0.000378
     69         10.509787   0.000091
     70         10.532053   0.000048
     71         11.372216   0.000000
     72         11.425156   0.000000
     73         12.343297   0.000000
     74         12.362307   0.000000
     75         12.633637   0.000000
     76         12.641993   0.000000
     77         12.893150   0.000000
     78         12.898040   0.000000
     79         13.283776   0.000000
     80         13.288557   0.000000
     81         14.151432   0.000000
     82         14.154251   0.000000
     83         14.376224   0.000000
     84         14.381591   0.000000
     85         14.809505   0.000000
     86         14.816759   0.000000
     87         15.384080   0.000000
     88         15.392357   0.000000

  0.3684211E+00  0.0000000E+00  0.0000000E+00  0.5555556E-02
      1        -11.938619   1.000000
      2        -11.938162   1.000000
      3        -11.808487   1.000000
      4        -11.808439   1.000000
      5        -11.774866   1.000000
      6        -11.774798   1.000000
      7        -11.762939   1.000000
      8        -11.762723   1.000000
      9        -11.701121   1.000000
     10        -11.701086   1.000000
     11        -11.685364   1.000000
     12        -11.685332   1.000000
     13        -10.922817   1.000000
     14        -10.922303   1.000000
     15        -10.827438   1.000000
     16        -10.827347   1.000000
     17        -10.811848   1.000000
     18        -10.811782   1.000000
     19        -10.769142   1.000000
     20        -10.769089   1.000000
     21        -10.704843   1.000000
     22        -10.704537   1.000000
     23        -10.676321   1.000000
     24        -10.676246   1.000000
     25        -10.662995   1.000000
     26        -10.662967   1.000000
     27        -10.652005   1.000000
     28        -10.651960   1.000000
     29        -10.623245   1.000000
     30        -10.623166   1.000000
     31         -0.509469   1.000000
     32         -0.508347   1.000000
     33          1.462902   1.000000
     34          1.464562   1.000000
     35          3.190558   1.000000
     36          3.200072   1.000000
     37          4.906401   1.000000
     38          4.907545   1.000000
     39          6.537982   1.000000
     40          6.541682   1.000000
     41          6.742413   1.000000
     42          6.745779   1.000000
     43          7.356812   1.000000
     44          7.391160   1.000000
     45          7.427983   1.000000
     46          7.440033   1.000000
     47          7.832907   1.000000
     48          7.843866   1.000000
     49          7.881699   1.000000
     50          7.905603   1.000000
     51          7.922514   1.000000
     52          7.927533   1.000000
     53          8.071982   1.000000
     54          8.073294   1.000000
     55          8.524037   1.000000
     56          8.614911   1.000000
     57          8.720452   1.000000
     58          8.778738   1.000000
     59          9.189350   1.000000
     60          9.232584   1.000000
     61          9.392840   0.999984
     62          9.409332   0.999973
     63          9.490479   0.999734
     64          9.499888   0.999660
     65          9.519488   0.999441
     66          9.675468   0.984458
     67         10.517375   0.000073
     68         10.528923   0.000052
     69         10.547205   0.000031
     70         10.582252   0.000010
     71         11.446233   0.000000
     72         11.498645   0.000000
     73         12.460040   0.000000
     74         12.467968   0.000000
     75         12.531322   0.000000
     76         12.548246   0.000000
     77         12.867451   0.000000
     78         12.871763   0.000000
     79         13.309028   0.000000
     80         13.313874   0.000000
     81         14.119603   0.000000
     82         14.122374   0.000000
     83         14.531323   0.000000
     84         14.537671   0.000000
     85         14.708446   0.000000
     86         14.716727   0.000000
     87         15.430033   0.000000
     88         15.435637   0.000000

  0.3947368E+00  0.0000000E+00  0.0000000E+00  0.5555556E-02
      1        -11.938389   1.000000
      2        -11.937932   1.000000
      3        -11.806297   1.000000
      4        -11.806262   1.000000
      5        -11.778074   1.000000
      6        -11.777989   1.000000
      7        -11.762841   1.000000
      8        -11.762622   1.000000
      9        -11.700915   1.000000
     10        -11.700879   1.000000
     11        -11.685095   1.000000
     12        -11.685063   1.000000
     13        -10.922711   1.000000
     14        -10.922195   1.000000
     15        -10.826393   1.000000
     16        -10.826299   1.000000
     17        -10.810594   1.000000
     18        -10.810504   1.000000
     19        -10.772573   1.000000
     20        -10.772501   1.000000
     21        -10.704047   1.000000
     22        -10.703731   1.000000
     23        -10.673220   1.000000
     24        -10.673159   1.000000
     25        -10.662026   1.000000
     26        -10.662000   1.000000
     27        -10.653067   1.000000
     28        -10.653014   1.000000
     29        -10.622978   1.000000
     30        -10.622889   1.000000
     31         -0.365922   1.000000
     32         -0.364812   1.000000
     33          1.244073   1.000000
     34          1.245669   1.000000
     35          3.175128   1.000000
     36          3.184769   1.000000
     37          4.863450   1.000000
     38          4.864735   1.000000
     39          6.560710   1.000000
     40          6.565771   1.000000
     41          6.761671   1.000000
     42          6.767665   1.000000
     43          7.347106   1.000000
     44          7.387480   1.000000
     45          7.462699   1.000000
     46          7.476576   1.000000
     47          7.834612   1.000000
     48          7.845776   1.000000
     49          7.878207   1.000000
     50          7.891673   1.000000
     51          7.903932   1.000000
     52          7.917292   1.000000
     53          8.079519   1.000000
     54          8.085352   1.000000
     55          8.568092   1.000000
     56          8.662788   1.000000
     57          8.761051   1.000000
     58          8.821274   1.000000
     59          9.148202   1.000000
     60          9.189093   1.000000
     61          9.387600   0.999986
     62          9.402582   0.999978
     63          9.475939   0.999819
     64          9.484935   0.999770
     65          9.503982   0.999622
     66          9.662693   0.987659
     67         10.526083   0.000057
     68         10.553694   0.000025
     69         10.661445   0.000001
     70         10.711400   0.000000
     71         11.521431   0.000000
     72         11.573872   0.000000
     73         12.285648   0.000000
     74         12.292667   0.000000
     75         12.720715   0.000000
     76         12.732553   0.000000
     77         12.779835   0.000000
     78         12.785592   0.000000
     79         13.420677   0.000000
     80         13.425782   0.000000
     81         14.090173   0.000000
     82         14.093028   0.000000
     83         14.533173   0.000000
     84         14.538065   0.000000
     85         14.639426   0.000000
     86         14.641964   0.000000
     87         15.566106   0.000000
     88         15.569323   0.000000

  0.4210526E+00  0.0000000E+00  0.0000000E+00  0.5555556E-02
      1        -11.938220   1.000000
      2        -11.937761   1.000000
      3        -11.804180   1.000000
      4        -11.804161   1.000000
      5        -11.781090   1.000000
      6        -11.780984   1.000000
      7        -11.762760   1.000000
      8        -11.762539   1.000000
      9        -11.700811   1.000000
     10        -11.700773   1.000000
     11        -11.684862   1.000000
     12        -11.684830   1.000000
     13        -10.922644   1.000000
     14        -10.922127   1.000000
     15        -10.825445   1.000000
     16        -10.825349   1.000000
     17        -10.809733   1.000000
     18        -10.809614   1.000000
     19        -10.775419   1.000000
     20        -10.775326   1.000000
     21        -10.703420   1.000000
     22        -10.703096   1.000000
     23        -10.670321   1.000000
     24        -10.670271   1.000000
     25        -10.661383   1.000000
     26        -10.661361   1.000000
     27        -10.654428   1.000000
     28        -10.654363   1.000000
     29        -10.622711   1.000000
     30        -10.622614   1.000000
     31         -0.217019   1.000000
     32         -0.215931   1.000000
     33          1.035668   1.000000
     34          1.037237   1.000000
     35          3.163446   1.000000
     36          3.173177   1.000000
     37          4.829723   1.000000
     38          4.831117   1.000000
     39          6.579414   1.000000
     40          6.585649   1.000000
     41          6.778284   1.000000
     42          6.786827   1.000000
     43          7.337157   1.000000
     44          7.382690   1.000000
     45          7.491712   1.000000
     46          7.508083   1.000000
     47          7.835156   1.000000
     48          7.846277   1.000000
     49          7.871033   1.000000
     50          7.874876   1.000000
     51          7.887736   1.000000
     52          7.921428   1.000000
     53          8.080940   1.000000
     54          8.091831   1.000000
     55          8.604915   1.000000
     56          8.703205   1.000000
     57          8.801739   1.000000
     58          8.865324   1.000000
     59          9.107157   1.000000
     60          9.143799   1.000000
     61          9.382166   0.999988
     62          9.393887   0.999983
     63          9.463801   0.999870
     64          9.471106   0.999842
     65          9.490796   0.999732
     66          9.652033   0.989876
     67         10.532893   0.000047
     68         10.562363   0.000019
     69         10.790016   0.000000
     70         10.842303   0.000000
     71         11.593986   0.000000
     72         11.647187   0.000000
     73         12.116219   0.000000
     74         12.120829   0.000000
     75         12.668001   0.000000
     76         12.672991   0.000000
     77         12.928816   0.000000
     78         12.939773   0.000000
     79         13.562576   0.000000
     80         13.568885   0.000000
     81         14.065123   0.000000
     82         14.067663   0.000000
     83         14.406912   0.000000
     84         14.417459   0.000000
     85         14.572668   0.000000
     86         14.577175   0.000000
     87         15.740520   0.000000
     88         15.743453   0.000000

  0.4473684E+00  0.0000000E+00  0.0000000E+00  0.5555556E-02
      1        -11.938088   1.000000
      2        -11.937629   1.000000
      3        -11.802195   1.000000
      4        -11.802189   1.000000
      5        -11.783730   1.000000
      6        -11.783602   1.000000
      7        -11.762690   1.000000
      8        -11.762469   1.000000
      9        -11.700707   1.000000
     10        -11.700669   1.000000
     11        -11.684707   1.000000
     12        -11.684676   1.000000
     13        -10.922581   1.000000
     14        -10.922064   1.000000
     15        -10.824645   1.000000
     16        -10.824546   1.000000
     17        -10.809117   1.000000
     18        -10.808971   1.000000
     19        -10.777550   1.000000
     20        -10.777437   1.000000
     21        -10.702972   1.000000
     22        -10.702643   1.000000
     23        -10.667702   1.000000
     24        -10.667654   1.000000
     25        -10.660915   1.000000
     26        -10.660899   1.000000
     27        -10.655914   1.000000
     28        -10.655835   1.000000
     29        -10.622512   1.000000
     30        -10.622409   1.000000
     31         -0.068245   1.000000
     32         -0.067200   1.000000
     33          0.843925   1.000000
     34          0.845507   1.000000
     35          3.155236   1.000000
     36          3.165027   1.000000
     37          4.805466   1.000000
     38          4.806935   1.000000
     39          6.593376   1.000000
     40          6.600520   1.000000
     41          6.791187   1.000000
     42          6.801922   1.000000
     43          7.328605   1.000000
     44          7.378345   1.000000
     45          7.513544   1.000000
     46          7.532338   1.000000
     47          7.833983   1.000000
     48          7.845115   1.000000
     49          7.860150   1.000000
     50          7.867634   1.000000
     51          7.877834   1.000000
     52          7.926299   1.000000
     53          8.078766   1.000000
     54          8.094588   1.000000
     55          8.632912   1.000000
     56          8.734433   1.000000
     57          8.840433   1.000000
     58          8.910587   1.000000
     59          9.068222   1.000000
     60          9.097457   1.000000
     61          9.376335   0.999990
     62          9.384797   0.999987
     63          9.455360   0.999897
     64          9.460722   0.999881
     65          9.480770   0.999794
     66          9.644029   0.991304
     67         10.537965   0.000040
     68         10.568586   0.000016
     69         10.910448   0.000000
     70         10.966624   0.000000
     71         11.657830   0.000000
     72         11.712449   0.000000
     73         11.964792   0.000000
     74         11.965134   0.000000
     75         12.578252   0.000000
     76         12.585379   0.000000
     77         13.120725   0.000000
     78         13.127372   0.000000
     79         13.714213   0.000000
     80         13.722785   0.000000
     81         14.038208   0.000000
     82         14.041903   0.000000
     83         14.266757   0.000000
     84         14.278323   0.000000
     85         14.465814   0.000000
     86         14.468505   0.000000
     87         15.866391   0.000000
     88         15.870860   0.000000

  0.4736842E+00  0.0000000E+00  0.0000000E+00  0.5555556E-02
      1        -11.938003   1.000000
      2        -11.937544   1.000000
      3        -11.800676   1.000000
      4        -11.800651   1.000000
      5        -11.785671   1.000000
      6        -11.785520   1.000000
      7        -11.762639   1.000000
      8        -11.762418   1.000000
      9        -11.700636   1.000000
     10        -11.700598   1.000000
     11        -11.684609   1.000000
     12        -11.684577   1.000000
     13        -10.922544   1.000000
     14        -10.922027   1.000000
     15        -10.824102   1.000000
     16        -10.824001   1.000000
     17        -10.808745   1.000000
     18        -10.808578   1.000000
     19        -10.778869   1.000000
     20        -10.778742   1.000000
     21        -10.702692   1.000000
     22        -10.702360   1.000000
     23        -10.665584   1.000000
     24        -10.665516   1.000000
     25        -10.660712   1.000000
     26        -10.660672   1.000000
     27        -10.657287   1.000000
     28        -10.657191   1.000000
     29        -10.622377   1.000000
     30        -10.622271   1.000000
     31          0.063702   1.000000
     32          0.064664   1.000000
     33          0.685992   1.000000
     34          0.687640   1.000000
     35          3.150351   1.000000
     36          3.160176   1.000000
     37          4.790847   1.000000
     38          4.792360   1.000000
     39          6.602009   1.000000
     40          6.609727   1.000000
     41          6.799403   1.000000
     42          6.811642   1.000000
     43          7.322797   1.000000
     44          7.375332   1.000000
     45          7.527123   1.000000
     46          7.547715   1.000000
     47          7.831316   1.000000
     48          7.842918   1.000000
     49          7.854951   1.000000
     50          7.865070   1.000000
     51          7.871390   1.000000
     52          7.930107   1.000000
     53          8.075804   1.000000
     54          8.095389   1.000000
     55          8.650522   1.000000
     56          8.754434   1.000000
     57          8.872445   1.000000
     58          8.956733   1.000000
     59          9.036031   1.000000
     60          9.050612   1.000000
     61          9.370934   0.999992
     62          9.378361   0.999990
     63          9.450190   0.999911
     64          9.455026   0.999898
     65          9.474455   0.999826
     66          9.639061   0.992098
     67         10.541086   0.000037
     68         10.572350   0.000014
     69         11.004736   0.000000
     70         11.066264   0.000000
     71         11.704421   0.000000
     72         11.760344   0.000000
     73         11.844813   0.000000
     74         11.850672   0.000000
     75         12.515325   0.000000
     76         12.524767   0.000000
     77         13.279962   0.000000
     78         13.281339   0.000000
     79         13.858067   0.000000
     80         13.871623   0.000000
     81         13.999443   0.000000
     82         14.013595   0.000000
     83         14.149453   0.000000
     84         14.156201   0.000000
     85         14.350954   0.000000
     86         14.352296   0.000000
     87         15.921170   0.000000
     88         15.927339   0.000000

  0.5000000E+00  0.0000000E+00  0.0000000E+00  0.5555556E-02
      1        -11.937966   1.000000
      2        -11.937507   1.000000
      3        -11.800069   1.000000
      4        -11.800034   1.000000
      5        -11.786343   1.000000
      6        -11.786180   1.000000
      7        -11.762601   1.000000
      8        -11.762379   1.000000
      9        -11.700620   1.000000
     10        -11.700582   1.000000
     11        -11.684569   1.000000
     12        -11.684537   1.000000
     13        -10.922510   1.000000
     14        -10.921992   1.000000
     15        -10.823853   1.000000
     16        -10.823752   1.000000
     17        -10.808640   1.000000
     18        -10.808466   1.000000
     19        -10.779228   1.000000
     20        -10.779096   1.000000
     21        -10.702576   1.000000
     22        -10.702243   1.000000
     23        -10.664666   1.000000
     24        -10.664572   1.000000
     25        -10.660695   1.000000
     26        -10.660618   1.000000
     27        -10.657910   1.000000
     28        -10.657804   1.000000
     29        -10.622311   1.000000
     30        -10.622205   1.000000
     31          0.126280   1.000000
     32          0.127166   1.000000
     33          0.614717   1.000000
     34          0.616436   1.000000
     35          3.148734   1.000000
     36          3.158570   1.000000
     37          4.785965   1.000000
     38          4.787493   1.000000
     39          6.604933   1.000000
     40          6.612847   1.000000
     41          6.802228   1.000000
     42          6.815006   1.000000
     43          7.320737   1.000000
     44          7.374255   1.000000
     45          7.531736   1.000000
     46          7.552999   1.000000
     47          7.829885   1.000000
     48          7.841826   1.000000
     49          7.853707   1.000000
     50          7.866292   1.000000
     51          7.867443   1.000000
     52          7.931563   1.000000
     53          8.074488   1.000000
     54          8.095507   1.000000
     55          8.656546   1.000000
     56          8.761360   1.000000
     57          8.886474   1.000000
     58          9.001007   1.000000
     59          9.006096   1.000000
     60          9.021927   1.000000
     61          9.368577   0.999992
     62          9.376178   0.999990
     63          9.448357   0.999916
     64          9.453378   0.999903
     65          9.472297   0.999836
     66          9.637386   0.992352
     67         10.542164   0.000036
     68         10.573634   0.000014
     69         11.042705   0.000000
     70         11.107408   0.000000
     71         11.723503   0.000000
     72         11.780735   0.000000
     73         11.794811   0.000000
     74         11.803568   0.000000
     75         12.492301   0.000000
     76         12.502825   0.000000
     77         13.347167   0.000000
     78         13.349414   0.000000
     79         13.923642   0.000000
     80         13.937766   0.000000
     81         14.005164   0.000000
     82         14.026600   0.000000
     83         14.076111   0.000000
     84         14.077949   0.000000
     85         14.292643   0.000000
     86         14.297126   0.000000
     87         15.934363   0.000000
     88         15.942441   0.000000

  0.5000000E+00  0.0000000E+00  0.0000000E+00  0.5555556E-02
      1        -11.937966   1.000000
      2        -11.937507   1.000000
      3        -11.800069   1.000000
      4        -11.800034   1.000000
      5        -11.786343   1.000000
      6        -11.786180   1.000000
      7        -11.762601   1.000000
      8        -11.762379   1.000000
      9        -11.700620   1.000000
     10        -11.700582   1.000000
     11        -11.684569   1.000000
     12        -11.684537   1.000000
     13        -10.922510   1.000000
     14        -10.921992   1.000000
     15        -10.823853   1.000000
     16        -10.823752   1.000000
     17        -10.808640   1.000000
     18        -10.808466   1.000000
     19        -10.779228   1.000000
     20        -10.779096   1.000000
     21        -10.702576   1.000000
     22        -10.702243   1.000000
     23        -10.664666   1.000000
     24        -10.664572   1.000000
     25        -10.660695   1.000000
     26        -10.660618   1.000000
     27        -10.657910   1.000000
     28        -10.657804   1.000000
     29        -10.622311   1.000000
     30        -10.622205   1.000000
     31          0.126280   1.000000
     32          0.127166   1.000000
     33          0.614717   1.000000
     34          0.616436   1.000000
     35          3.148734   1.000000
     36          3.158570   1.000000
     37          4.785965   1.000000
     38          4.787493   1.000000
     39          6.604933   1.000000
     40          6.612847   1.000000
     41          6.802228   1.000000
     42          6.815006   1.000000
     43          7.320737   1.000000
     44          7.374255   1.000000
     45          7.531736   1.000000
     46          7.552999   1.000000
     47          7.829885   1.000000
     48          7.841826   1.000000
     49          7.853707   1.000000
     50          7.866292   1.000000
     51          7.867443   1.000000
     52          7.931563   1.000000
     53          8.074488   1.000000
     54          8.095507   1.000000
     55          8.656546   1.000000
     56          8.761360   1.000000
     57          8.886474   1.000000
     58          9.001007   1.000000
     59          9.006096   1.000000
     60          9.021927   1.000000
     61          9.368577   0.999992
     62          9.376178   0.999990
     63          9.448357   0.999916
     64          9.453378   0.999903
     65          9.472297   0.999836
     66          9.637386   0.992352
     67         10.542164   0.000036
     68         10.573634   0.000014
     69         11.042705   0.000000
     70         11.107408   0.000000
     71         11.723503   0.000000
     72         11.780735   0.000000
     73         11.794811   0.000000
     74         11.803568   0.000000
     75         12.492301   0.000000
     76         12.502825   0.000000
     77         13.347167   0.000000
     78         13.349414   0.000000
     79         13.923642   0.000000
     80         13.937766   0.000000
     81         14.005164   0.000000
     82         14.026600   0.000000
     83         14.076111   0.000000
     84         14.077949   0.000000
     85         14.292643   0.000000
     86         14.297126   0.000000
     87         15.935172   0.000000
     88         15.945277   0.000000

  0.4912281E+00  0.1754386E-01  0.0000000E+00  0.5555556E-02
      1        -11.937964   1.000000
      2        -11.937505   1.000000
      3        -11.800048   1.000000
      4        -11.800013   1.000000
      5        -11.786375   1.000000
      6        -11.786212   1.000000
      7        -11.762598   1.000000
      8        -11.762376   1.000000
      9        -11.700610   1.000000
     10        -11.700571   1.000000
     11        -11.684580   1.000000
     12        -11.684549   1.000000
     13        -10.922512   1.000000
     14        -10.921994   1.000000
     15        -10.823976   1.000000
     16        -10.823876   1.000000
     17        -10.808461   1.000000
     18        -10.808289   1.000000
     19        -10.779258   1.000000
     20        -10.779125   1.000000
     21        -10.702613   1.000000
     22        -10.702281   1.000000
     23        -10.665024   1.000000
     24        -10.664948   1.000000
     25        -10.660664   1.000000
     26        -10.660604   1.000000
     27        -10.657507   1.000000
     28        -10.657415   1.000000
     29        -10.622323   1.000000
     30        -10.622216   1.000000
     31          0.128079   1.000000
     32          0.128965   1.000000
     33          0.616104   1.000000
     34          0.617820   1.000000
     35          3.133249   1.000000
     36          3.142899   1.000000
     37          4.801859   1.000000
     38          4.803118   1.000000
     39          6.605519   1.000000
     40          6.613410   1.000000
     41          6.802890   1.000000
     42          6.815666   1.000000
     43          7.319885   1.000000
     44          7.373321   1.000000
     45          7.532280   1.000000
     46          7.553532   1.000000
     47          7.825893   1.000000
     48          7.834160   1.000000
     49          7.850365   1.000000
     50          7.860472   1.000000
     51          7.878239   1.000000
     52          7.934335   1.000000
     53          8.074032   1.000000
     54          8.094761   1.000000
     55          8.657869   1.000000
     56          8.762303   1.000000
     57          8.886771   1.000000
     58          9.000838   1.000000
     59          9.006559   1.000000
     60          9.022049   1.000000
     61          9.365561   0.999993
     62          9.372214   0.999991
     63          9.437059   0.999939
     64          9.449254   0.999914
     65          9.488793   0.999746
     66          9.641074   0.991785
     67         10.543028   0.000035
     68         10.574280   0.000013
     69         11.045263   0.000000
     70         11.109791   0.000000
     71         11.719015   0.000000
     72         11.775532   0.000000
     73         11.796255   0.000000
     74         11.804819   0.000000
     75         12.489089   0.000000
     76         12.499371   0.000000
     77         13.343447   0.000000
     78         13.344866   0.000000
     79         13.903775   0.000000
     80         13.912339   0.000000
     81         13.986919   0.000000
     82         13.993693   0.000000
     83         14.085927   0.000000
     84         14.090933   0.000000
     85         14.338210   0.000000
     86         14.339512   0.000000
     87         15.915336   0.000000
     88         15.921734   0.000000

  0.4824561E+00  0.3508772E-01  0.0000000E+00  0.5555556E-02
      1        -11.937962   1.000000
      2        -11.937503   1.000000
      3        -11.799985   1.000000
      4        -11.799949   1.000000
      5        -11.786494   1.000000
      6        -11.786331   1.000000
      7        -11.762600   1.000000
      8        -11.762378   1.000000
      9        -11.700579   1.000000
     10        -11.700540   1.000000
     11        -11.684646   1.000000
     12        -11.684614   1.000000
     13        -10.922525   1.000000
     14        -10.922007   1.000000
     15        -10.824343   1.000000
     16        -10.824248   1.000000
     17        -10.807944   1.000000
     18        -10.807781   1.000000
     19        -10.779368   1.000000
     20        -10.779235   1.000000
     21        -10.702759   1.000000
     22        -10.702429   1.000000
     23        -10.665924   1.000000
     24        -10.665866   1.000000
     25        -10.660633   1.000000
     26        -10.660550   1.000000
     27        -10.656498   1.000000
     28        -10.656422   1.000000
     29        -10.622387   1.000000
     30        -10.622280   1.000000
     31          0.133475   1.000000
     32          0.134362   1.000000
     33          0.620259   1.000000
     34          0.621966   1.000000
     35          3.088562   1.000000
     36          3.097708   1.000000
     37          4.847704   1.000000
     38          4.848216   1.000000
     39          6.607266   1.000000
     40          6.615090   1.000000
     41          6.804869   1.000000
     42          6.817640   1.000000
     43          7.317337   1.000000
     44          7.370525   1.000000
     45          7.533912   1.000000
     46          7.555130   1.000000
     47          7.811758   1.000000
     48          7.814573   1.000000
     49          7.846865   1.000000
     50          7.858681   1.000000
     51          7.889000   1.000000
     52          7.940843   1.000000
     53          8.072686   1.000000
     54          8.092561   1.000000
     55          8.661801   1.000000
     56          8.765114   1.000000
     57          8.887662   1.000000
     58          9.000484   1.000000
     59          9.007770   1.000000
     60          9.022392   1.000000
     61          9.355662   0.999995
     62          9.360988   0.999994
     63          9.421910   0.999961
     64          9.443485   0.999927
     65          9.513938   0.999513
     66          9.651326   0.990010
     67         10.545627   0.000032
     68         10.576220   0.000013
     69         11.052916   0.000000
     70         11.116923   0.000000
     71         11.705857   0.000000
     72         11.760709   0.000000
     73         11.800119   0.000000
     74         11.808497   0.000000
     75         12.479303   0.000000
     76         12.488851   0.000000
     77         13.332574   0.000000
     78         13.333737   0.000000
     79         13.818553   0.000000
     80         13.831441   0.000000
     81         13.988300   0.000000
     82         13.996761   0.000000
     83         14.084903   0.000000
     84         14.087083   0.000000
     85         14.441418   0.000000
     86         14.444167   0.000000
     87         15.863113   0.000000
     88         15.869177   0.000000

  0.4736842E+00  0.5263158E-01  0.0000000E+00  0.5555556E-02
      1        -11.937943   1.000000
      2        -11.937484   1.000000
      3        -11.799853   1.000000
      4        -11.799818   1.000000
      5        -11.786648   1.000000
      6        -11.786486   1.000000
      7        -11.762572   1.000000
      8        -11.762350   1.000000
      9        -11.700518   1.000000
     10        -11.700479   1.000000
     11        -11.684701   1.000000
     12        -11.684670   1.000000
     13        -10.922523   1.000000
     14        -10.922006   1.000000
     15        -10.824867   1.000000
     16        -10.824779   1.000000
     17        -10.807089   1.000000
     18        -10.806936   1.000000
     19        -10.779502   1.000000
     20        -10.779368   1.000000
     21        -10.702917   1.000000
     22        -10.702591   1.000000
     23        -10.667064   1.000000
     24        -10.667003   1.000000
     25        -10.660566   1.000000
     26        -10.660451   1.000000
     27        -10.655142   1.000000
     28        -10.655075   1.000000
     29        -10.622423   1.000000
     30        -10.622316   1.000000
     31          0.142469   1.000000
     32          0.143356   1.000000
     33          0.627158   1.000000
     34          0.628849   1.000000
     35          3.019153   1.000000
     36          3.027608   1.000000
     37          4.918252   1.000000
     38          4.918882   1.000000
     39          6.610154   1.000000
     40          6.617863   1.000000
     41          6.808166   1.000000
     42          6.820927   1.000000
     43          7.313108   1.000000
     44          7.365889   1.000000
     45          7.536634   1.000000
     46          7.557794   1.000000
     47          7.787570   1.000000
     48          7.788205   1.000000
     49          7.845687   1.000000
     50          7.858082   1.000000
     51          7.897786   1.000000
     52          7.948288   1.000000
     53          8.070510   1.000000
     54          8.089015   1.000000
     55          8.668241   1.000000
     56          8.769736   1.000000
     57          8.889151   1.000000
     58          9.000147   1.000000
     59          9.009459   1.000000
     60          9.022893   1.000000
     61          9.337023   0.999997
     62          9.345849   0.999996
     63          9.411097   0.999972
     64          9.435844   0.999941
     65          9.540190   0.999073
     66          9.666312   0.986816
     67         10.550275   0.000028
     68         10.579746   0.000011
     69         11.065603   0.000000
     70         11.128753   0.000000
     71         11.684924   0.000000
     72         11.737389   0.000000
     73         11.806225   0.000000
     74         11.814500   0.000000
     75         12.462535   0.000000
     76         12.470832   0.000000
     77         13.316382   0.000000
     78         13.320516   0.000000
     79         13.720458   0.000000
     80         13.732515   0.000000
     81         13.965102   0.000000
     82         13.967578   0.000000
     83         14.109523   0.000000
     84         14.119746   0.000000
     85         14.568937   0.000000
     86         14.573806   0.000000
     87         15.790388   0.000000
     88         15.796012   0.000000

  0.4649123E+00  0.7017544E-01  0.0000000E+00  0.5555556E-02
      1        -11.937946   1.000000
      2        -11.937488   1.000000
      3        -11.799722   1.000000
      4        -11.799688   1.000000
      5        -11.786874   1.000000
      6        -11.786712   1.000000
      7        -11.762573   1.000000
      8        -11.762351   1.000000
      9        -11.700470   1.000000
     10        -11.700431   1.000000
     11        -11.684791   1.000000
     12        -11.684760   1.000000
     13        -10.922564   1.000000
     14        -10.922048   1.000000
     15        -10.825568   1.000000
     16        -10.825485   1.000000
     17        -10.806075   1.000000
     18        -10.805934   1.000000
     19        -10.779712   1.000000
     20        -10.779576   1.000000
     21        -10.703190   1.000000
     22        -10.702870   1.000000
     23        -10.668333   1.000000
     24        -10.668260   1.000000
     25        -10.660523   1.000000
     26        -10.660390   1.000000
     27        -10.653685   1.000000
     28        -10.653624   1.000000
     29        -10.622500   1.000000
     30        -10.622394   1.000000
     31          0.155054   1.000000
     32          0.155941   1.000000
     33          0.636757   1.000000
     34          0.638426   1.000000
     35          2.930472   1.000000
     36          2.938172   1.000000
     37          5.007701   1.000000
     38          5.009676   1.000000
     39          6.614136   1.000000
     40          6.621683   1.000000
     41          6.812761   1.000000
     42          6.825510   1.000000
     43          7.307224   1.000000
     44          7.359441   1.000000
     45          7.540430   1.000000
     46          7.561509   1.000000
     47          7.755863   1.000000
     48          7.756242   1.000000
     49          7.845697   1.000000
     50          7.857835   1.000000
     51          7.904586   1.000000
     52          7.955067   1.000000
     53          8.067594   1.000000
     54          8.084286   1.000000
     55          8.677015   1.000000
     56          8.776066   1.000000
     57          8.891222   1.000000
     58          8.999886   1.000000
     59          9.011430   1.000000
     60          9.023444   1.000000
     61          9.312781   0.999999
     62          9.327303   0.999998
     63          9.403099   0.999978
     64          9.427315   0.999954
     65          9.566421   0.998289
     66          9.684120   0.981907
     67         10.557140   0.000023
     68         10.584996   0.000010
     69         11.083188   0.000000
     70         11.145159   0.000000
     71         11.657438   0.000000
     72         11.706868   0.000000
     73         11.814584   0.000000
     74         11.822753   0.000000
     75         12.438160   0.000000
     76         12.444672   0.000000
     77         13.299273   0.000000
     78         13.306658   0.000000
     79         13.626555   0.000000
     80         13.636946   0.000000
     81         13.896414   0.000000
     82         13.898382   0.000000
     83         14.175634   0.000000
     84         14.187397   0.000000
     85         14.707636   0.000000
     86         14.713530   0.000000
     87         15.709302   0.000000
     88         15.714714   0.000000

  0.4561404E+00  0.8771930E-01  0.0000000E+00  0.5555556E-02
      1        -11.937955   1.000000
      2        -11.937498   1.000000
      3        -11.799529   1.000000
      4        -11.799496   1.000000
      5        -11.787162   1.000000
      6        -11.787000   1.000000
      7        -11.762554   1.000000
      8        -11.762333   1.000000
      9        -11.700417   1.000000
     10        -11.700378   1.000000
     11        -11.684913   1.000000
     12        -11.684883   1.000000
     13        -10.922626   1.000000
     14        -10.922110   1.000000
     15        -10.826294   1.000000
     16        -10.826215   1.000000
     17        -10.804922   1.000000
     18        -10.804792   1.000000
     19        -10.779962   1.000000
     20        -10.779825   1.000000
     21        -10.703524   1.000000
     22        -10.703211   1.000000
     23        -10.669648   1.000000
     24        -10.669561   1.000000
     25        -10.660494   1.000000
     26        -10.660350   1.000000
     27        -10.652125   1.000000
     28        -10.652069   1.000000
     29        -10.622592   1.000000
     30        -10.622486   1.000000
     31          0.171230   1.000000
     32          0.172118   1.000000
     33          0.648995   1.000000
     34          0.650634   1.000000
     35          2.827662   1.000000
     36          2.834628   1.000000
     37          5.111303   1.000000
     38          5.114788   1.000000
     39          6.619154   1.000000
     40          6.626491   1.000000
     41          6.818644   1.000000
     42          6.831375   1.000000
     43          7.299730   1.000000
     44          7.351235   1.000000
     45          7.545286   1.000000
     46          7.566253   1.000000
     47          7.718141   1.000000
     48          7.718747   1.000000
     49          7.846304   1.000000
     50          7.857731   1.000000
     51          7.909610   1.000000
     52          7.960529   1.000000
     53          8.064055   1.000000
     54          8.078584   1.000000
     55          8.687920   1.000000
     56          8.783986   1.000000
     57          8.893919   1.000000
     58          8.999665   1.000000
     59          9.013599   1.000000
     60          9.023896   1.000000
     61          9.286118   1.000000
     62          9.305510   0.999999
     63          9.396283   0.999982
     64          9.418389   0.999965
     65          9.592127   0.996977
     66          9.703238   0.974981
     67         10.566549   0.000017
     68         10.592264   0.000008
     69         11.105595   0.000000
     70         11.166076   0.000000
     71         11.624845   0.000000
     72         11.670735   0.000000
     73         11.825164   0.000000
     74         11.833192   0.000000
     75         12.405479   0.000000
     76         12.409674   0.000000
     77         13.283346   0.000000
     78         13.293761   0.000000
     79         13.541924   0.000000
     80         13.550257   0.000000
     81         13.806792   0.000000
     82         13.808112   0.000000
     83         14.257102   0.000000
     84         14.268325   0.000000
     85         14.852111   0.000000
     86         14.858480   0.000000
     87         15.630447   0.000000
     88         15.635976   0.000000

  0.4473684E+00  0.1052632E+00  0.0000000E+00  0.5555556E-02
      1        -11.937949   1.000000
      2        -11.937492   1.000000
      3        -11.799315   1.000000
      4        -11.799282   1.000000
      5        -11.787504   1.000000
      6        -11.787342   1.000000
      7        -11.762538   1.000000
      8        -11.762317   1.000000
      9        -11.700342   1.000000
     10        -11.700303   1.000000
     11        -11.685052   1.000000
     12        -11.685022   1.000000
     13        -10.922666   1.000000
     14        -10.922152   1.000000
     15        -10.827075   1.000000
     16        -10.826999   1.000000
     17        -10.803661   1.000000
     18        -10.803542   1.000000
     19        -10.780290   1.000000
     20        -10.780151   1.000000
     21        -10.703923   1.000000
     22        -10.703617   1.000000
     23        -10.670878   1.000000
     24        -10.670778   1.000000
     25        -10.660403   1.000000
     26        -10.660253   1.000000
     27        -10.650539   1.000000
     28        -10.650487   1.000000
     29        -10.622719   1.000000
     30        -10.622613   1.000000
     31          0.190997   1.000000
     32          0.191886   1.000000
     33          0.663775   1.000000
     34          0.665377   1.000000
     35          2.714942   1.000000
     36          2.721238   1.000000
     37          5.224706   1.000000
     38          5.229823   1.000000
     39          6.625134   1.000000
     40          6.632212   1.000000
     41          6.825794   1.000000
     42          6.838502   1.000000
     43          7.290665   1.000000
     44          7.341314   1.000000
     45          7.551145   1.000000
     46          7.571944   1.000000
     47          7.674856   1.000000
     48          7.676076   1.000000
     49          7.847296   1.000000
     50          7.857708   1.000000
     51          7.913051   1.000000
     52          7.964438   1.000000
     53          8.060015   1.000000
     54          8.072130   1.000000
     55          8.700739   1.000000
     56          8.793362   1.000000
     57          8.897234   1.000000
     58          8.999340   1.000000
     59          9.015867   1.000000
     60          9.024050   1.000000
     61          9.258330   1.000000
     62          9.281219   1.000000
     63          9.390019   0.999985
     64          9.409338   0.999973
     65          9.616874   0.994920
     66          9.722507   0.965877
     67         10.579242   0.000011
     68         10.602253   0.000005
     69         11.132593   0.000000
     70         11.191273   0.000000
     71         11.588775   0.000000
     72         11.630762   0.000000
     73         11.837874   0.000000
     74         11.845727   0.000000
     75         12.364055   0.000000
     76         12.365464   0.000000
     77         13.269179   0.000000
     78         13.282058   0.000000
     79         13.469116   0.000000
     80         13.475004   0.000000
     81         13.704957   0.000000
     82         13.705850   0.000000
     83         14.340446   0.000000
     84         14.350621   0.000000
     85         14.999734   0.000000
     86         15.006277   0.000000
     87         15.563525   0.000000
     88         15.569571   0.000000

  0.4385965E+00  0.1228070E+00  0.0000000E+00  0.5555556E-02
      1        -11.937917   1.000000
      2        -11.937462   1.000000
      3        -11.799036   1.000000
      4        -11.799004   1.000000
      5        -11.787888   1.000000
      6        -11.787728   1.000000
      7        -11.762501   1.000000
      8        -11.762280   1.000000
      9        -11.700210   1.000000
     10        -11.700171   1.000000
     11        -11.685199   1.000000
     12        -11.685171   1.000000
     13        -10.922681   1.000000
     14        -10.922168   1.000000
     15        -10.827811   1.000000
     16        -10.827736   1.000000
     17        -10.802282   1.000000
     18        -10.802174   1.000000
     19        -10.780620   1.000000
     20        -10.780479   1.000000
     21        -10.704349   1.000000
     22        -10.704052   1.000000
     23        -10.672006   1.000000
     24        -10.671892   1.000000
     25        -10.660281   1.000000
     26        -10.660129   1.000000
     27        -10.648927   1.000000
     28        -10.648879   1.000000
     29        -10.622836   1.000000
     30        -10.622730   1.000000
     31          0.214348   1.000000
     32          0.215238   1.000000
     33          0.680972   1.000000
     34          0.682529   1.000000
     35          2.595571   1.000000
     36          2.601278   1.000000
     37          5.344512   1.000000
     38          5.351371   1.000000
     39          6.631988   1.000000
     40          6.638754   1.000000
     41          6.834188   1.000000
     42          6.846868   1.000000
     43          7.280078   1.000000
     44          7.329729   1.000000
     45          7.557725   1.000000
     46          7.578073   1.000000
     47          7.626768   1.000000
     48          7.628778   1.000000
     49          7.848595   1.000000
     50          7.857751   1.000000
     51          7.915047   1.000000
     52          7.966724   1.000000
     53          8.055606   1.000000
     54          8.065159   1.000000
     55          8.715208   1.000000
     56          8.804019   1.000000
     57          8.901174   1.000000
     58          8.998730   1.000000
     59          9.018175   1.000000
     60          9.023750   1.000000
     61          9.230034   1.000000
     62          9.255197   1.000000
     63          9.384140   0.999988
     64          9.400317   0.999979
     65          9.640361   0.991897
     66          9.741094   0.954673
     67         10.595723   0.000007
     68         10.615446   0.000004
     69         11.163971   0.000000
     70         11.220496   0.000000
     71         11.550821   0.000000
     72         11.588621   0.000000
     73         11.852586   0.000000
     74         11.860241   0.000000
     75         12.312086   0.000000
     76         12.313865   0.000000
     77         13.255835   0.000000
     78         13.270182   0.000000
     79         13.409660   0.000000
     80         13.412846   0.000000
     81         13.595868   0.000000
     82         13.597733   0.000000
     83         14.414726   0.000000
     84         14.423551   0.000000
     85         15.148670   0.000000
     86         15.155212   0.000000
     87         15.518955   0.000000
     88         15.525984   0.000000

  0.4298246E+00  0.1403509E+00  0.0000000E+00  0.5555556E-02
      1        -11.937898   1.000000
      2        -11.937444   1.000000
      3        -11.798754   1.000000
      4        -11.798724   1.000000
      5        -11.788325   1.000000
      6        -11.788166   1.000000
      7        -11.762485   1.000000
      8        -11.762265   1.000000
      9        -11.700081   1.000000
     10        -11.700042   1.000000
     11        -11.685378   1.000000
     12        -11.685351   1.000000
     13        -10.922721   1.000000
     14        -10.922210   1.000000
     15        -10.828539   1.000000
     16        -10.828464   1.000000
     17        -10.800929   1.000000
     18        -10.800831   1.000000
     19        -10.781007   1.000000
     20        -10.780865   1.000000
     21        -10.704847   1.000000
     22        -10.704559   1.000000
     23        -10.673106   1.000000
     24        -10.672980   1.000000
     25        -10.660176   1.000000
     26        -10.660024   1.000000
     27        -10.647385   1.000000
     28        -10.647340   1.000000
     29        -10.622999   1.000000
     30        -10.622893   1.000000
     31          0.241277   1.000000
     32          0.242168   1.000000
     33          0.700408   1.000000
     34          0.701910   1.000000
     35          2.472042   1.000000
     36          2.477244   1.000000
     37          5.468086   1.000000
     38          5.476798   1.000000
     39          6.639604   1.000000
     40          6.646005   1.000000
     41          6.843794   1.000000
     42          6.856440   1.000000
     43          7.268005   1.000000
     44          7.316505   1.000000
     45          7.559792   1.000000
     46          7.569175   1.000000
     47          7.579497   1.000000
     48          7.592511   1.000000
     49          7.850164   1.000000
     50          7.857853   1.000000
     51          7.915677   1.000000
     52          7.967373   1.000000
     53          8.050946   1.000000
     54          8.057890   1.000000
     55          8.731068   1.000000
     56          8.815770   1.000000
     57          8.905741   1.000000
     58          8.997530   1.000000
     59          9.020199   1.000000
     60          9.023068   1.000000
     61          9.201524   1.000000
     62          9.227973   1.000000
     63          9.378761   0.999990
     64          9.391552   0.999984
     65          9.662244   0.987760
     66          9.758314   0.941815
     67         10.616534   0.000003
     68         10.632383   0.000002
     69         11.199372   0.000000
     70         11.253229   0.000000
     71         11.512637   0.000000
     72         11.545889   0.000000
     73         11.869110   0.000000
     74         11.876558   0.000000
     75         12.250104   0.000000
     76         12.255250   0.000000
     77         13.240172   0.000000
     78         13.254449   0.000000
     79         13.362646   0.000000
     80         13.364524   0.000000
     81         13.485969   0.000000
     82         13.490396   0.000000
     83         14.468585   0.000000
     84         14.475790   0.000000
     85         15.297197   0.000000
     86         15.303616   0.000000
     87         15.507956   0.000000
     88         15.516401   0.000000

  0.4210526E+00  0.1578947E+00  0.0000000E+00  0.5555556E-02
      1        -11.937844   1.000000
      2        -11.937391   1.000000
      3        -11.798405   1.000000
      4        -11.798375   1.000000
      5        -11.788760   1.000000
      6        -11.788601   1.000000
      7        -11.762410   1.000000
      8        -11.762190   1.000000
      9        -11.699919   1.000000
     10        -11.699880   1.000000
     11        -11.685526   1.000000
     12        -11.685500   1.000000
     13        -10.922709   1.000000
     14        -10.922201   1.000000
     15        -10.829167   1.000000
     16        -10.829091   1.000000
     17        -10.799504   1.000000
     18        -10.799415   1.000000
     19        -10.781327   1.000000
     20        -10.781181   1.000000
     21        -10.705309   1.000000
     22        -10.705031   1.000000
     23        -10.674059   1.000000
     24        -10.673923   1.000000
     25        -10.660059   1.000000
     26        -10.659907   1.000000
     27        -10.645795   1.000000
     28        -10.645753   1.000000
     29        -10.623098   1.000000
     30        -10.622993   1.000000
     31          0.271779   1.000000
     32          0.272671   1.000000
     33          0.721836   1.000000
     34          0.723271   1.000000
     35          2.346324   1.000000
     36          2.351099   1.000000
     37          5.593372   1.000000
     38          5.604055   1.000000
     39          6.647861   1.000000
     40          6.653840   1.000000
     41          6.854578   1.000000
     42          6.867179   1.000000
     43          7.254458   1.000000
     44          7.301619   1.000000
     45          7.512145   1.000000
     46          7.515102   1.000000
     47          7.578209   1.000000
     48          7.598268   1.000000
     49          7.851990   1.000000
     50          7.858020   1.000000
     51          7.914977   1.000000
     52          7.966390   1.000000
     53          8.046146   1.000000
     54          8.050529   1.000000
     55          8.748062   1.000000
     56          8.828418   1.000000
     57          8.910935   1.000000
     58          8.995386   1.000000
     59          9.019499   1.000000
     60          9.024256   1.000000
     61          9.172969   1.000000
     62          9.199918   1.000000
     63          9.374135   0.999991
     64          9.383355   0.999988
     65          9.682266   0.982481
     66          9.773732   0.928015
     67         10.642464   0.000001
     68         10.653896   0.000001
     69         11.238270   0.000000
     70         11.288406   0.000000
     71         11.476403   0.000000
     72         11.504256   0.000000
     73         11.887190   0.000000
     74         11.894442   0.000000
     75         12.180683   0.000000
     76         12.189255   0.000000
     77         13.213868   0.000000
     78         13.226267   0.000000
     79         13.321335   0.000000
     80         13.322371   0.000000
     81         13.390814   0.000000
     82         13.402414   0.000000
     83         14.493341   0.000000
     84         14.498826   0.000000
     85         15.443108   0.000000
     86         15.449121   0.000000
     87         15.540024   0.000000
     88         15.549867   0.000000

  0.4122807E+00  0.1754386E+00  0.0000000E+00  0.5555556E-02
      1        -11.937808   1.000000
      2        -11.937357   1.000000
      3        -11.798035   1.000000
      4        -11.798007   1.000000
      5        -11.789244   1.000000
      6        -11.789088   1.000000
      7        -11.762363   1.000000
      8        -11.762144   1.000000
      9        -11.699745   1.000000
     10        -11.699705   1.000000
     11        -11.685738   1.000000
     12        -11.685712   1.000000
     13        -10.922725   1.000000
     14        -10.922219   1.000000
     15        -10.829783   1.000000
     16        -10.829707   1.000000
     17        -10.798103   1.000000
     18        -10.798022   1.000000
     19        -10.781719   1.000000
     20        -10.781571   1.000000
     21        -10.705839   1.000000
     22        -10.705571   1.000000
     23        -10.674957   1.000000
     24        -10.674810   1.000000
     25        -10.659967   1.000000
     26        -10.659816   1.000000
     27        -10.644278   1.000000
     28        -10.644238   1.000000
     29        -10.623237   1.000000
     30        -10.623133   1.000000
     31          0.305844   1.000000
     32          0.306738   1.000000
     33          0.744897   1.000000
     34          0.746254   1.000000
     35          2.220033   1.000000
     36          2.224455   1.000000
     37          5.718745   1.000000
     38          5.731518   1.000000
     39          6.656616   1.000000
     40          6.662117   1.000000
     41          6.866495   1.000000
     42          6.879041   1.000000
     43          7.239386   1.000000
     44          7.284911   1.000000
     45          7.450792   1.000000
     46          7.453800   1.000000
     47          7.588004   1.000000
     48          7.608148   1.000000
     49          7.854059   1.000000
     50          7.858246   1.000000
     51          7.912950   1.000000
     52          7.963767   1.000000
     53          8.041300   1.000000
     54          8.043264   1.000000
     55          8.765925   1.000000
     56          8.841742   1.000000
     57          8.916738   1.000000
     58          8.991921   1.000000
     59          9.016054   1.000000
     60          9.027163   1.000000
     61          9.144454   1.000000
     62          9.171258   1.000000
     63          9.370476   0.999992
     64          9.376002   0.999990
     65          9.700145   0.976233
     66          9.786977   0.914267
     67         10.674042   0.000000
     68         10.680595   0.000000
     69         11.279294   0.000000
     70         11.322481   0.000000
     71         11.446371   0.000000
     72         11.465866   0.000000
     73         11.906341   0.000000
     74         11.913440   0.000000
     75         12.105475   0.000000
     76         12.117394   0.000000
     77         13.155353   0.000000
     78         13.163852   0.000000
     79         13.275276   0.000000
     80         13.276065   0.000000
     81         13.344356   0.000000
     82         13.364302   0.000000
     83         14.487612   0.000000
     84         14.491566   0.000000
     85         15.580819   0.000000
     86         15.584160   0.000000
     87         15.622713   0.000000
     88         15.630714   0.000000

  0.4035088E+00  0.1929825E+00  0.0000000E+00  0.5555556E-02
      1        -11.937777   1.000000
      2        -11.937327   1.000000
      3        -11.797687   1.000000
      4        -11.797658   1.000000
      5        -11.789736   1.000000
      6        -11.789582   1.000000
      7        -11.762327   1.000000
      8        -11.762108   1.000000
      9        -11.699569   1.000000
     10        -11.699529   1.000000
     11        -11.685973   1.000000
     12        -11.685949   1.000000
     13        -10.922747   1.000000
     14        -10.922243   1.000000
     15        -10.830355   1.000000
     16        -10.830278   1.000000
     17        -10.796782   1.000000
     18        -10.796708   1.000000
     19        -10.782110   1.000000
     20        -10.781960   1.000000
     21        -10.706424   1.000000
     22        -10.706166   1.000000
     23        -10.675777   1.000000
     24        -10.675621   1.000000
     25        -10.659914   1.000000
     26        -10.659766   1.000000
     27        -10.642819   1.000000
     28        -10.642780   1.000000
     29        -10.623394   1.000000
     30        -10.623291   1.000000
     31          0.343466   1.000000
     32          0.344361   1.000000
     33          0.769074   1.000000
     34          0.770338   1.000000
     35          2.094627   1.000000
     36          2.098764   1.000000
     37          5.842860   1.000000
     38          5.857835   1.000000
     39          6.665716   1.000000
     40          6.670680   1.000000
     41          6.879496   1.000000
     42          6.891971   1.000000
     43          7.222560   1.000000
     44          7.265789   1.000000
     45          7.385746   1.000000
     46          7.389353   1.000000
     47          7.599422   1.000000
     48          7.619432   1.000000
     49          7.856333   1.000000
     50          7.858544   1.000000
     51          7.909601   1.000000
     52          7.959498   1.000000
     53          8.036127   1.000000
     54          8.036621   1.000000
     55          8.784398   1.000000
     56          8.855497   1.000000
     57          8.923116   1.000000
     58          8.986806   1.000000
     59          9.010806   1.000000
     60          9.030707   1.000000
     61          9.116066   1.000000
     62          9.142161   1.000000
     63          9.368028   0.999993
     64          9.369866   0.999992
     65          9.715661   0.969382
     66          9.797835   0.901601
     67         10.711762   0.000000
     68         10.713110   0.000000
     69         11.317967   0.000000
     70         11.342600   0.000000
     71         11.434184   0.000000
     72         11.437742   0.000000
     73         11.925552   0.000000
     74         11.932629   0.000000
     75         12.026727   0.000000
     76         12.041771   0.000000
     77         13.056819   0.000000
     78         13.063220   0.000000
     79         13.245633   0.000000
     80         13.249267   0.000000
     81         13.332489   0.000000
     82         13.356199   0.000000
     83         14.457641   0.000000
     84         14.460406   0.000000
     85         15.704351   0.000000
     86         15.710330   0.000000
     87         15.749757   0.000000
     88         15.753108   0.000000

  0.3947368E+00  0.2105263E+00  0.0000000E+00  0.5555556E-02
      1        -11.937727   1.000000
      2        -11.937278   1.000000
      3        -11.797265   1.000000
      4        -11.797234   1.000000
      5        -11.790164   1.000000
      6        -11.790016   1.000000
      7        -11.762248   1.000000
      8        -11.762030   1.000000
      9        -11.699347   1.000000
     10        -11.699307   1.000000
     11        -11.686209   1.000000
     12        -11.686186   1.000000
     13        -10.922734   1.000000
     14        -10.922233   1.000000
     15        -10.830826   1.000000
     16        -10.830747   1.000000
     17        -10.795394   1.000000
     18        -10.795327   1.000000
     19        -10.782436   1.000000
     20        -10.782285   1.000000
     21        -10.706904   1.000000
     22        -10.706655   1.000000
     23        -10.676466   1.000000
     24        -10.676301   1.000000
     25        -10.659874   1.000000
     26        -10.659728   1.000000
     27        -10.641373   1.000000
     28        -10.641335   1.000000
     29        -10.623487   1.000000
     30        -10.623385   1.000000
     31          0.384637   1.000000
     32          0.385534   1.000000
     33          0.793596   1.000000
     34          0.794747   1.000000
     35          1.971600   1.000000
     36          1.975516   1.000000
     37          5.964573   1.000000
     38          5.981843   1.000000
     39          6.674991   1.000000
     40          6.679358   1.000000
     41          6.893518   1.000000
     42          6.905899   1.000000
     43          7.203188   1.000000
     44          7.242038   1.000000
     45          7.318813   1.000000
     46          7.324864   1.000000
     47          7.612082   1.000000
     48          7.631914   1.000000
     49          7.858264   1.000000
     50          7.859396   1.000000
     51          7.904979   1.000000
     52          7.953577   1.000000
     53          8.029542   1.000000
     54          8.031917   1.000000
     55          8.803203   1.000000
     56          8.869377   1.000000
     57          8.929991   1.000000
     58          8.979805   1.000000
     59          9.003697   1.000000
     60          9.034833   1.000000
     61          9.087957   1.000000
     62          9.112786   1.000000
     63          9.364989   0.999993
     64          9.367217   0.999993
     65          9.728693   0.962433
     66          9.806254   0.890876
     67         10.751976   0.000000
     68         10.756089   0.000000
     69         11.333168   0.000000
     70         11.337275   0.000000
     71         11.431565   0.000000
     72         11.461769   0.000000
     73         11.930447   0.000000
     74         11.942232   0.000000
     75         11.960124   0.000000
     76         11.972769   0.000000
     77         12.943082   0.000000
     78         12.949668   0.000000
     79         13.231114   0.000000
     80         13.236268   0.000000
     81         13.331586   0.000000
     82         13.357778   0.000000
     83         14.412652   0.000000
     84         14.414533   0.000000
     85         15.837677   0.000000
     86         15.844056   0.000000
     87         15.885923   0.000000
     88         15.889781   0.000000

  0.3859649E+00  0.2280702E+00  0.0000000E+00  0.5555556E-02
      1        -11.937659   1.000000
      2        -11.937211   1.000000
      3        -11.796938   1.000000
      4        -11.796901   1.000000
      5        -11.790572   1.000000
      6        -11.790431   1.000000
      7        -11.762179   1.000000
      8        -11.761961   1.000000
      9        -11.699090   1.000000
     10        -11.699050   1.000000
     11        -11.686467   1.000000
     12        -11.686446   1.000000
     13        -10.922689   1.000000
     14        -10.922191   1.000000
     15        -10.831210   1.000000
     16        -10.831131   1.000000
     17        -10.794206   1.000000
     18        -10.794144   1.000000
     19        -10.782756   1.000000
     20        -10.782604   1.000000
     21        -10.707393   1.000000
     22        -10.707154   1.000000
     23        -10.677122   1.000000
     24        -10.676949   1.000000
     25        -10.659811   1.000000
     26        -10.659669   1.000000
     27        -10.640007   1.000000
     28        -10.639970   1.000000
     29        -10.623596   1.000000
     30        -10.623495   1.000000
     31          0.429343   1.000000
     32          0.430241   1.000000
     33          0.817254   1.000000
     34          0.818271   1.000000
     35          1.852688   1.000000
     36          1.856443   1.000000
     37          6.082870   1.000000
     38          6.102482   1.000000
     39          6.684239   1.000000
     40          6.687949   1.000000
     41          6.908477   1.000000
     42          6.920724   1.000000
     43          7.178177   1.000000
     44          7.205346   1.000000
     45          7.253916   1.000000
     46          7.269470   1.000000
     47          7.625878   1.000000
     48          7.645514   1.000000
     49          7.858523   1.000000
     50          7.861936   1.000000
     51          7.899199   1.000000
     52          7.945970   1.000000
     53          8.023365   1.000000
     54          8.027522   1.000000
     55          8.822002   1.000000
     56          8.882918   1.000000
     57          8.937186   1.000000
     58          8.970809   1.000000
     59          8.994694   1.000000
     60          9.039503   1.000000
     61          9.060407   1.000000
     62          9.083269   1.000000
     63          9.361916   0.999994
     64          9.367801   0.999993
     65          9.739148   0.955969
     66          9.812241   0.882754
     67         10.797349   0.000000
     68         10.806924   0.000000
     69         11.310556   0.000000
     70         11.323753   0.000000
     71         11.466841   0.000000
     72         11.507419   0.000000
     73         11.857131   0.000000
     74         11.877577   0.000000
     75         11.969060   0.000000
     76         11.976535   0.000000
     77         12.827395   0.000000
     78         12.834970   0.000000
     79         13.224840   0.000000
     80         13.230995   0.000000
     81         13.334851   0.000000
     82         13.362910   0.000000
     83         14.360774   0.000000
     84         14.361988   0.000000
     85         15.977617   0.000000
     86         15.980607   0.000000
     87         16.025201   0.000000
     88         16.033933   0.000000

  0.3771930E+00  0.2456140E+00  0.0000000E+00  0.5555556E-02
      1        -11.937629   1.000000
      2        -11.937183   1.000000
      3        -11.796776   1.000000
      4        -11.796727   1.000000
      5        -11.790791   1.000000
      6        -11.790663   1.000000
      7        -11.762131   1.000000
      8        -11.761914   1.000000
      9        -11.698879   1.000000
     10        -11.698839   1.000000
     11        -11.686753   1.000000
     12        -11.686733   1.000000
     13        -10.922698   1.000000
     14        -10.922203   1.000000
     15        -10.831576   1.000000
     16        -10.831496   1.000000
     17        -10.793231   1.000000
     18        -10.793172   1.000000
     19        -10.782934   1.000000
     20        -10.782784   1.000000
     21        -10.707897   1.000000
     22        -10.707665   1.000000
     23        -10.677738   1.000000
     24        -10.677559   1.000000
     25        -10.659881   1.000000
     26        -10.659742   1.000000
     27        -10.638748   1.000000
     28        -10.638711   1.000000
     29        -10.623709   1.000000
     30        -10.623608   1.000000
     31          0.477568   1.000000
     32          0.478467   1.000000
     33          0.838155   1.000000
     34          0.839014   1.000000
     35          1.740221   1.000000
     36          1.743874   1.000000
     37          6.196779   1.000000
     38          6.218691   1.000000
     39          6.693234   1.000000
     40          6.696230   1.000000
     41          6.924226   1.000000
     42          6.936256   1.000000
     43          7.137066   1.000000
     44          7.146462   1.000000
     45          7.202553   1.000000
     46          7.233454   1.000000
     47          7.640766   1.000000
     48          7.660200   1.000000
     49          7.857948   1.000000
     50          7.864853   1.000000
     51          7.892664   1.000000
     52          7.936708   1.000000
     53          8.017752   1.000000
     54          8.023494   1.000000
     55          8.840340   1.000000
     56          8.895276   1.000000
     57          8.944207   1.000000
     58          8.959848   1.000000
     59          8.983998   1.000000
     60          9.033752   1.000000
     61          9.044734   1.000000
     62          9.054339   1.000000
     63          9.360559   0.999994
     64          9.370034   0.999992
     65          9.747115   0.950465
     66          9.816004   0.877435
     67         10.849227   0.000000
     68         10.864175   0.000000
     69         11.286737   0.000000
     70         11.299951   0.000000
     71         11.519441   0.000000
     72         11.560986   0.000000
     73         11.775481   0.000000
     74         11.798801   0.000000
     75         11.984085   0.000000
     76         11.991705   0.000000
     77         12.715197   0.000000
     78         12.724157   0.000000
     79         13.224510   0.000000
     80         13.231425   0.000000
     81         13.338920   0.000000
     82         13.368430   0.000000
     83         14.308285   0.000000
     84         14.308981   0.000000
     85         16.104370   0.000000
     86         16.107546   0.000000
     87         16.177383   0.000000
     88         16.190763   0.000000

  0.3684211E+00  0.2631579E+00  0.0000000E+00  0.5555556E-02
      1        -11.937604   1.000000
      2        -11.937160   1.000000
      3        -11.796805   1.000000
      4        -11.796739   1.000000
      5        -11.790796   1.000000
      6        -11.790684   1.000000
      7        -11.762087   1.000000
      8        -11.761870   1.000000
      9        -11.698663   1.000000
     10        -11.698623   1.000000
     11        -11.687056   1.000000
     12        -11.687037   1.000000
     13        -10.922706   1.000000
     14        -10.922214   1.000000
     15        -10.831881   1.000000
     16        -10.831800   1.000000
     17        -10.792479   1.000000
     18        -10.792420   1.000000
     19        -10.782956   1.000000
     20        -10.782811   1.000000
     21        -10.708366   1.000000
     22        -10.708142   1.000000
     23        -10.678302   1.000000
     24        -10.678118   1.000000
     25        -10.660012   1.000000
     26        -10.659877   1.000000
     27        -10.637570   1.000000
     28        -10.637532   1.000000
     29        -10.623809   1.000000
     30        -10.623710   1.000000
     31          0.529295   1.000000
     32          0.530196   1.000000
     33          0.853279   1.000000
     34          0.853959   1.000000
     35          1.637525   1.000000
     36          1.641125   1.000000
     37          6.305275   1.000000
     38          6.329267   1.000000
     39          6.701672   1.000000
     40          6.703897   1.000000
     41          6.940386   1.000000
     42          6.951919   1.000000
     43          7.075336   1.000000
     44          7.076252   1.000000
     45          7.170853   1.000000
     46          7.207633   1.000000
     47          7.656696   1.000000
     48          7.675928   1.000000
     49          7.855773   1.000000
     50          7.867773   1.000000
     51          7.886356   1.000000
     52          7.925929   1.000000
     53          8.012770   1.000000
     54          8.019932   1.000000
     55          8.857422   1.000000
     56          8.904527   1.000000
     57          8.945730   1.000000
     58          8.950730   1.000000
     59          8.972892   1.000000
     60          9.010604   1.000000
     61          9.024988   1.000000
     62          9.051538   1.000000
     63          9.360941   0.999994
     64          9.373846   0.999991
     65          9.752709   0.946282
     66          9.817757   0.874899
     67         10.906843   0.000000
     68         10.926975   0.000000
     69         11.266036   0.000000
     70         11.277114   0.000000
     71         11.576714   0.000000
     72         11.616669   0.000000
     73         11.697537   0.000000
     74         11.723266   0.000000
     75         11.993189   0.000000
     76         12.001280   0.000000
     77         12.611405   0.000000
     78         12.622007   0.000000
     79         13.228978   0.000000
     80         13.236498   0.000000
     81         13.341598   0.000000
     82         13.372200   0.000000
     83         14.259899   0.000000
     84         14.260219   0.000000
     85         16.214865   0.000000
     86         16.218538   0.000000
     87         16.341174   0.000000
     88         16.356205   0.000000

  0.3596491E+00  0.2807018E+00  0.0000000E+00  0.5555556E-02
      1        -11.937600   1.000000
      2        -11.937157   1.000000
      3        -11.797073   1.000000
      4        -11.796990   1.000000
      5        -11.790577   1.000000
      6        -11.790482   1.000000
      7        -11.762068   1.000000
      8        -11.761852   1.000000
      9        -11.698472   1.000000
     10        -11.698431   1.000000
     11        -11.687379   1.000000
     12        -11.687361   1.000000
     13        -10.922734   1.000000
     14        -10.922245   1.000000
     15        -10.832175   1.000000
     16        -10.832093   1.000000
     17        -10.792032   1.000000
     18        -10.791968   1.000000
     19        -10.782802   1.000000
     20        -10.782666   1.000000
     21        -10.708834   1.000000
     22        -10.708616   1.000000
     23        -10.678853   1.000000
     24        -10.678665   1.000000
     25        -10.660248   1.000000
     26        -10.660118   1.000000
     27        -10.636523   1.000000
     28        -10.636485   1.000000
     29        -10.623903   1.000000
     30        -10.623804   1.000000
     31          0.584501   1.000000
     32          0.585403   1.000000
     33          0.858037   1.000000
     34          0.858536   1.000000
     35          1.549458   1.000000
     36          1.553032   1.000000
     37          6.406964   1.000000
     38          6.432422   1.000000
     39          6.709046   1.000000
     40          6.710450   1.000000
     41          6.954508   1.000000
     42          6.962957   1.000000
     43          7.008545   1.000000
     44          7.009606   1.000000
     45          7.146963   1.000000
     46          7.184475   1.000000
     47          7.673602   1.000000
     48          7.692638   1.000000
     49          7.850363   1.000000
     50          7.870151   1.000000
     51          7.882001   1.000000
     52          7.914118   1.000000
     53          8.008476   1.000000
     54          8.016924   1.000000
     55          8.871504   1.000000
     56          8.906297   1.000000
     57          8.931235   1.000000
     58          8.947026   1.000000
     59          8.967962   1.000000
     60          8.993029   1.000000
     61          9.001170   1.000000
     62          9.058149   1.000000
     63          9.362953   0.999994
     64          9.379099   0.999989
     65          9.756108   0.943606
     66          9.817752   0.874908
     67         10.968057   0.000000
     68         10.993064   0.000000
     69         11.251358   0.000000
     70         11.259547   0.000000
     71         11.596123   0.000000
     72         11.626648   0.000000
     73         11.664876   0.000000
     74         11.699477   0.000000
     75         11.990444   0.000000
     76         11.999003   0.000000
     77         12.522438   0.000000
     78         12.534689   0.000000
     79         13.237388   0.000000
     80         13.245440   0.000000
     81         13.340874   0.000000
     82         13.372166   0.000000
     83         14.219346   0.000000
     84         14.219480   0.000000
     85         16.310571   0.000000
     86         16.314111   0.000000
     87         16.507108   0.000000
     88         16.522747   0.000000

  0.3508772E+00  0.2982456E+00  0.0000000E+00  0.5555556E-02
      1        -11.937603   1.000000
      2        -11.937162   1.000000
      3        -11.797561   1.000000
      4        -11.797463   1.000000
      5        -11.790101   1.000000
      6        -11.790020   1.000000
      7        -11.762060   1.000000
      8        -11.761844   1.000000
      9        -11.698258   1.000000
     10        -11.698216   1.000000
     11        -11.687738   1.000000
     12        -11.687722   1.000000
     13        -10.922760   1.000000
     14        -10.922274   1.000000
     15        -10.832410   1.000000
     16        -10.832328   1.000000
     17        -10.791882   1.000000
     18        -10.791808   1.000000
     19        -10.782426   1.000000
     20        -10.782303   1.000000
     21        -10.709261   1.000000
     22        -10.709049   1.000000
     23        -10.679359   1.000000
     24        -10.679168   1.000000
     25        -10.660549   1.000000
     26        -10.660423   1.000000
     27        -10.635539   1.000000
     28        -10.635500   1.000000
     29        -10.624013   1.000000
     30        -10.623916   1.000000
     31          0.643145   1.000000
     32          0.644049   1.000000
     33          0.846464   1.000000
     34          0.846821   1.000000
     35          1.482221   1.000000
     36          1.485751   1.000000
     37          6.499287   1.000000
     38          6.524604   1.000000
     39          6.714272   1.000000
     40          6.714851   1.000000
     41          6.922804   1.000000
     42          6.931809   1.000000
     43          6.984552   1.000000
     44          6.995950   1.000000
     45          7.125078   1.000000
     46          7.162000   1.000000
     47          7.691386   1.000000
     48          7.710245   1.000000
     49          7.840717   1.000000
     50          7.870381   1.000000
     51          7.880638   1.000000
     52          7.902971   1.000000
     53          8.004913   1.000000
     54          8.014541   1.000000
     55          8.878195   1.000000
     56          8.895637   1.000000
     57          8.914236   1.000000
     58          8.932599   1.000000
     59          8.972154   1.000000
     60          8.976777   1.000000
     61          8.995181   1.000000
     62          9.065509   1.000000
     63          9.366478   0.999993
     64          9.385662   0.999987
     65          9.757588   0.942409
     66          9.816312   0.876993
     67         11.027567   0.000000
     68         11.056505   0.000000
     69         11.247542   0.000000
     70         11.252720   0.000000
     71         11.530993   0.000000
     72         11.561470   0.000000
     73         11.723376   0.000000
     74         11.759625   0.000000
     75         11.968475   0.000000
     76         11.976933   0.000000
     77         12.456649   0.000000
     78         12.469986   0.000000
     79         13.248876   0.000000
     80         13.257548   0.000000
     81         13.335179   0.000000
     82         13.366572   0.000000
     83         14.189647   0.000000
     84         14.189785   0.000000
     85         16.389959   0.000000
     86         16.393276   0.000000
     87         16.667646   0.000000
     88         16.683672   0.000000

  0.3421053E+00  0.3157895E+00  0.0000000E+00  0.5555556E-02
      1        -11.937606   1.000000
      2        -11.937167   1.000000
      3        -11.798171   1.000000
      4        -11.798063   1.000000
      5        -11.789437   1.000000
      6        -11.789368   1.000000
      7        -11.762040   1.000000
      8        -11.761825   1.000000
      9        -11.698062   1.000000
     10        -11.698021   1.000000
     11        -11.688084   1.000000
     12        -11.688069   1.000000
     13        -10.922775   1.000000
     14        -10.922292   1.000000
     15        -10.832599   1.000000
     16        -10.832517   1.000000
     17        -10.791978   1.000000
     18        -10.791892   1.000000
     19        -10.781801   1.000000
     20        -10.781690   1.000000
     21        -10.709621   1.000000
     22        -10.709414   1.000000
     23        -10.679824   1.000000
     24        -10.679631   1.000000
     25        -10.660895   1.000000
     26        -10.660773   1.000000
     27        -10.634654   1.000000
     28        -10.634615   1.000000
     29        -10.624073   1.000000
     30        -10.623977   1.000000
     31          0.705099   1.000000
     32          0.706004   1.000000
     33          0.813372   1.000000
     34          0.813670   1.000000
     35          1.441277   1.000000
     36          1.444687   1.000000
     37          6.575260   1.000000
     38          6.595952   1.000000
     39          6.714984   1.000000
     40          6.715386   1.000000
     41          6.867593   1.000000
     42          6.885308   1.000000
     43          7.000269   1.000000
     44          7.012084   1.000000
     45          7.103827   1.000000
     46          7.139712   1.000000
     47          7.709899   1.000000
     48          7.728616   1.000000
     49          7.827524   1.000000
     50          7.864487   1.000000
     51          7.881394   1.000000
     52          7.896916   1.000000
     53          8.002103   1.000000
     54          8.012817   1.000000
     55          8.868241   1.000000
     56          8.876069   1.000000
     57          8.895958   1.000000
     58          8.914374   1.000000
     59          8.968162   1.000000
     60          8.983292   1.000000
     61          9.000632   1.000000
     62          9.073547   1.000000
     63          9.371362   0.999992
     64          9.393387   0.999983
     65          9.757443   0.942527
     66          9.813731   0.880667
     67         11.074301   0.000000
     68         11.103569   0.000000
     69         11.263069   0.000000
     70         11.266831   0.000000
     71         11.465614   0.000000
     72         11.495438   0.000000
     73         11.794618   0.000000
     74         11.829166   0.000000
     75         11.922181   0.000000
     76         11.929493   0.000000
     77         12.420256   0.000000
     78         12.433577   0.000000
     79         13.261878   0.000000
     80         13.271863   0.000000
     81         13.324242   0.000000
     82         13.354478   0.000000
     83         14.172956   0.000000
     84         14.173339   0.000000
     85         16.448896   0.000000
     86         16.451995   0.000000
     87         16.816171   0.000000
     88         16.846745   0.000000

  0.3333333E+00  0.3333333E+00  0.0000000E+00  0.5555556E-02
      1        -11.937665   1.000000
      2        -11.937227   1.000000
      3        -11.798958   1.000000
      4        -11.798842   1.000000
      5        -11.788643   1.000000
      6        -11.788582   1.000000
      7        -11.762081   1.000000
      8        -11.761866   1.000000
      9        -11.697889   1.000000
     10        -11.697847   1.000000
     11        -11.688481   1.000000
     12        -11.688467   1.000000
     13        -10.922866   1.000000
     14        -10.922388   1.000000
     15        -10.832853   1.000000
     16        -10.832769   1.000000
     17        -10.792368   1.000000
     18        -10.792271   1.000000
     19        -10.781036   1.000000
     20        -10.780936   1.000000
     21        -10.709977   1.000000
     22        -10.709773   1.000000
     23        -10.680350   1.000000
     24        -10.680156   1.000000
     25        -10.661425   1.000000
     26        -10.661308   1.000000
     27        -10.633872   1.000000
     28        -10.633831   1.000000
     29        -10.624156   1.000000
     30        -10.624062   1.000000
     31          0.753873   1.000000
     32          0.754330   1.000000
     33          0.774232   1.000000
     34          0.774965   1.000000
     35          1.427711   1.000000
     36          1.430918   1.000000
     37          6.610846   1.000000
     38          6.618541   1.000000
     39          6.713815   1.000000
     40          6.717811   1.000000
     41          6.844764   1.000000
     42          6.875347   1.000000
     43          7.019213   1.000000
     44          7.030566   1.000000
     45          7.083098   1.000000
     46          7.117583   1.000000
     47          7.728860   1.000000
     48          7.747526   1.000000
     49          7.811918   1.000000
     50          7.850630   1.000000
     51          7.883631   1.000000
     52          7.897859   1.000000
     53          8.000069   1.000000
     54          8.011783   1.000000
     55          8.841361   1.000000
     56          8.851983   1.000000
     57          8.876575   1.000000
     58          8.894756   1.000000
     59          8.974044   1.000000
     60          8.995528   1.000000
     61          9.010041   1.000000
     62          9.082225   1.000000
     63          9.377381   0.999990
     64          9.402063   0.999978
     65          9.755908   0.943767
     66          9.810237   0.885519
     67         11.098020   0.000000
     68         11.122675   0.000000
     69         11.291829   0.000000
     70         11.299886   0.000000
     71         11.426387   0.000000
     72         11.445495   0.000000
     73         11.847424   0.000000
     74         11.854066   0.000000
     75         11.876035   0.000000
     76         11.906752   0.000000
     77         12.411560   0.000000
     78         12.424038   0.000000
     79         13.270045   0.000000
     80         13.285550   0.000000
     81         13.313178   0.000000
     82         13.337416   0.000000
     83         14.170362   0.000000
     84         14.171256   0.000000
     85         16.474926   0.000000
     86         16.478101   0.000000
     87         16.895773   0.000000
     88         16.923726   0.000000

  0.3333333E+00  0.3333333E+00  0.0000000E+00  0.5555556E-02
      1        -11.937665   1.000000
      2        -11.937227   1.000000
      3        -11.798958   1.000000
      4        -11.798842   1.000000
      5        -11.788643   1.000000
      6        -11.788582   1.000000
      7        -11.762081   1.000000
      8        -11.761866   1.000000
      9        -11.697889   1.000000
     10        -11.697847   1.000000
     11        -11.688481   1.000000
     12        -11.688467   1.000000
     13        -10.922866   1.000000
     14        -10.922388   1.000000
     15        -10.832853   1.000000
     16        -10.832769   1.000000
     17        -10.792368   1.000000
     18        -10.792271   1.000000
     19        -10.781036   1.000000
     20        -10.780936   1.000000
     21        -10.709977   1.000000
     22        -10.709773   1.000000
     23        -10.680350   1.000000
     24        -10.680156   1.000000
     25        -10.661425   1.000000
     26        -10.661308   1.000000
     27        -10.633872   1.000000
     28        -10.633831   1.000000
     29        -10.624156   1.000000
     30        -10.624062   1.000000
     31          0.753873   1.000000
     32          0.754330   1.000000
     33          0.774232   1.000000
     34          0.774965   1.000000
     35          1.427711   1.000000
     36          1.430918   1.000000
     37          6.610846   1.000000
     38          6.618541   1.000000
     39          6.713815   1.000000
     40          6.717811   1.000000
     41          6.844764   1.000000
     42          6.875347   1.000000
     43          7.019213   1.000000
     44          7.030566   1.000000
     45          7.083098   1.000000
     46          7.117583   1.000000
     47          7.728860   1.000000
     48          7.747526   1.000000
     49          7.811918   1.000000
     50          7.850630   1.000000
     51          7.883631   1.000000
     52          7.897859   1.000000
     53          8.000069   1.000000
     54          8.011783   1.000000
     55          8.841361   1.000000
     56          8.851983   1.000000
     57          8.876575   1.000000
     58          8.894756   1.000000
     59          8.974044   1.000000
     60          8.995528   1.000000
     61          9.010041   1.000000
     62          9.082225   1.000000
     63          9.377381   0.999990
     64          9.402063   0.999978
     65          9.755908   0.943767
     66          9.810237   0.885519
     67         11.098020   0.000000
     68         11.122675   0.000000
     69         11.291829   0.000000
     70         11.299886   0.000000
     71         11.426387   0.000000
     72         11.445495   0.000000
     73         11.847424   0.000000
     74         11.854066   0.000000
     75         11.876035   0.000000
     76         11.906752   0.000000
     77         12.411560   0.000000
     78         12.424038   0.000000
     79         13.270045   0.000000
     80         13.285550   0.000000
     81         13.313178   0.000000
     82         13.337416   0.000000
     83         14.170362   0.000000
     84         14.171256   0.000000
     85         16.475479   0.000000
     86         16.479003   0.000000
     87         16.900601   0.000000
     88         16.947919   0.000000

  0.3157895E+00  0.3157895E+00  0.0000000E+00  0.5555556E-02
      1        -11.937607   1.000000
      2        -11.937167   1.000000
      3        -11.797993   1.000000
      4        -11.797888   1.000000
      5        -11.789567   1.000000
      6        -11.789498   1.000000
      7        -11.762053   1.000000
      8        -11.761837   1.000000
      9        -11.698013   1.000000
     10        -11.697972   1.000000
     11        -11.688024   1.000000
     12        -11.688008   1.000000
     13        -10.922756   1.000000
     14        -10.922273   1.000000
     15        -10.832470   1.000000
     16        -10.832386   1.000000
     17        -10.792279   1.000000
     18        -10.792192   1.000000
     19        -10.781697   1.000000
     20        -10.781591   1.000000
     21        -10.709387   1.000000
     22        -10.709175   1.000000
     23        -10.679575   1.000000
     24        -10.679384   1.000000
     25        -10.660650   1.000000
     26        -10.660525   1.000000
     27        -10.635525   1.000000
     28        -10.635493   1.000000
     29        -10.623745   1.000000
     30        -10.623650   1.000000
     31          0.605321   1.000000
     32          0.605969   1.000000
     33          0.898436   1.000000
     34          0.899139   1.000000
     35          1.468353   1.000000
     36          1.471639   1.000000
     37          6.488781   1.000000
     38          6.502521   1.000000
     39          6.773367   1.000000
     40          6.788304   1.000000
     41          6.879538   1.000000
     42          6.891243   1.000000
     43          6.991652   1.000000
     44          6.998908   1.000000
     45          7.119264   1.000000
     46          7.150395   1.000000
     47          7.702755   1.000000
     48          7.719001   1.000000
     49          7.828077   1.000000
     50          7.862433   1.000000
     51          7.879988   1.000000
     52          7.894721   1.000000
     53          8.012266   1.000000
     54          8.024717   1.000000
     55          8.851266   1.000000
     56          8.869537   1.000000
     57          8.898055   1.000000
     58          8.914052   1.000000
     59          8.978987   1.000000
     60          8.990725   1.000000
     61          9.016589   1.000000
     62          9.076595   1.000000
     63          9.370271   0.999992
     64          9.392262   0.999984
     65          9.755280   0.944268
     66          9.810948   0.884544
     67         11.073579   0.000000
     68         11.101540   0.000000
     69         11.188100   0.000000
     70         11.204999   0.000000
     71         11.550693   0.000000
     72         11.572967   0.000000
     73         11.694224   0.000000
     74         11.713751   0.000000
     75         12.023800   0.000000
     76         12.031034   0.000000
     77         12.441051   0.000000
     78         12.454019   0.000000
     79         13.238140   0.000000
     80         13.244290   0.000000
     81         13.345832   0.000000
     82         13.371720   0.000000
     83         14.192049   0.000000
     84         14.192482   0.000000
     85         16.318559   0.000000
     86         16.323824   0.000000
     87         16.814785   0.000000
     88         16.861435   0.000000

  0.2982456E+00  0.2982456E+00  0.0000000E+00  0.5555556E-02
      1        -11.937670   1.000000
      2        -11.937229   1.000000
      3        -11.798587   1.000000
      4        -11.798499   1.000000
      5        -11.788924   1.000000
      6        -11.788850   1.000000
      7        -11.762178   1.000000
      8        -11.761961   1.000000
      9        -11.698221   1.000000
     10        -11.698180   1.000000
     11        -11.687723   1.000000
     12        -11.687705   1.000000
     13        -10.922781   1.000000
     14        -10.922295   1.000000
     15        -10.832200   1.000000
     16        -10.832116   1.000000
     17        -10.793596   1.000000
     18        -10.793518   1.000000
     19        -10.781265   1.000000
     20        -10.781169   1.000000
     21        -10.708882   1.000000
     22        -10.708660   1.000000
     23        -10.679013   1.000000
     24        -10.678827   1.000000
     25        -10.660563   1.000000
     26        -10.660433   1.000000
     27        -10.637291   1.000000
     28        -10.637261   1.000000
     29        -10.623548   1.000000
     30        -10.623453   1.000000
     31          0.410042   1.000000
     32          0.410819   1.000000
     33          1.053093   1.000000
     34          1.053784   1.000000
     35          1.558255   1.000000
     36          1.561597   1.000000
     37          6.325722   1.000000
     38          6.339860   1.000000
     39          6.776939   1.000000
     40          6.796793   1.000000
     41          6.941951   1.000000
     42          6.944802   1.000000
     43          7.004942   1.000000
     44          7.007401   1.000000
     45          7.160260   1.000000
     46          7.188669   1.000000
     47          7.669155   1.000000
     48          7.681445   1.000000
     49          7.842715   1.000000
     50          7.868738   1.000000
     51          7.880244   1.000000
     52          7.897134   1.000000
     53          8.033807   1.000000
     54          8.048110   1.000000
     55          8.815054   1.000000
     56          8.848604   1.000000
     57          8.901014   1.000000
     58          8.903279   1.000000
     59          9.002781   1.000000
     60          9.024318   1.000000
     61          9.054771   1.000000
     62          9.081482   1.000000
     63          9.371259   0.999992
     64          9.391986   0.999984
     65          9.749618   0.948627
     66          9.807144   0.889695
     67         11.023309   0.000000
     68         11.042576   0.000000
     69         11.099685   0.000000
     70         11.118829   0.000000
     71         11.481191   0.000000
     72         11.502578   0.000000
     73         11.762942   0.000000
     74         11.780003   0.000000
     75         12.201309   0.000000
     76         12.208580   0.000000
     77         12.510292   0.000000
     78         12.522910   0.000000
     79         13.163779   0.000000
     80         13.167254   0.000000
     81         13.399192   0.000000
     82         13.423607   0.000000
     83         14.264241   0.000000
     84         14.264479   0.000000
     85         15.953136   0.000000
     86         15.960384   0.000000
     87         16.829879   0.000000
     88         16.924679   0.000000

  0.2807018E+00  0.2807018E+00  0.0000000E+00  0.5555556E-02
      1        -11.937773   1.000000
      2        -11.937330   1.000000
      3        -11.800311   1.000000
      4        -11.800233   1.000000
      5        -11.786855   1.000000
      6        -11.786783   1.000000
      7        -11.762328   1.000000
      8        -11.762110   1.000000
      9        -11.698434   1.000000
     10        -11.698394   1.000000
     11        -11.687490   1.000000
     12        -11.687470   1.000000
     13        -10.922799   1.000000
     14        -10.922309   1.000000
     15        -10.831922   1.000000
     16        -10.831838   1.000000
     17        -10.795786   1.000000
     18        -10.795713   1.000000
     19        -10.779752   1.000000
     20        -10.779674   1.000000
     21        -10.708388   1.000000
     22        -10.708156   1.000000
     23        -10.678535   1.000000
     24        -10.678356   1.000000
     25        -10.661014   1.000000
     26        -10.660880   1.000000
     27        -10.638924   1.000000
     28        -10.638889   1.000000
     29        -10.623391   1.000000
     30        -10.623296   1.000000
     31          0.208751   1.000000
     32          0.209624   1.000000
     33          1.221085   1.000000
     34          1.221770   1.000000
     35          1.673407   1.000000
     36          1.676858   1.000000
     37          6.164909   1.000000
     38          6.178689   1.000000
     39          6.760182   1.000000
     40          6.777672   1.000000
     41          6.912348   1.000000
     42          6.913511   1.000000
     43          7.103393   1.000000
     44          7.107666   1.000000
     45          7.201538   1.000000
     46          7.227696   1.000000
     47          7.631913   1.000000
     48          7.640117   1.000000
     49          7.853416   1.000000
     50          7.873171   1.000000
     51          7.884234   1.000000
     52          7.901450   1.000000
     53          8.062134   1.000000
     54          8.078532   1.000000
     55          8.760117   1.000000
     56          8.801559   1.000000
     57          8.868679   1.000000
     58          8.886846   1.000000
     59          9.036656   1.000000
     60          9.072319   1.000000
     61          9.095361   1.000000
     62          9.116410   1.000000
     63          9.378413   0.999990
     64          9.398916   0.999980
     65          9.740409   0.955133
     66          9.800363   0.898465
     67         10.925127   0.000000
     68         10.945210   0.000000
     69         11.066419   0.000000
     70         11.097096   0.000000
     71         11.278217   0.000000
     72         11.300451   0.000000
     73         11.989107   0.000000
     74         12.001671   0.000000
     75         12.390211   0.000000
     76         12.397923   0.000000
     77         12.598945   0.000000
     78         12.610671   0.000000
     79         13.070155   0.000000
     80         13.073051   0.000000
     81         13.458716   0.000000
     82         13.482072   0.000000
     83         14.368865   0.000000
     84         14.369162   0.000000
     85         15.532428   0.000000
     86         15.540650   0.000000
     87         16.724096   0.000000
     88         16.729987   0.000000

  0.2631579E+00  0.2631579E+00  0.0000000E+00  0.5555556E-02
      1        -11.937939   1.000000
      2        -11.937495   1.000000
      3        -11.802528   1.000000
      4        -11.802454   1.000000
      5        -11.783994   1.000000
      6        -11.783928   1.000000
      7        -11.762504   1.000000
      8        -11.762285   1.000000
      9        -11.698701   1.000000
     10        -11.698663   1.000000
     11        -11.687340   1.000000
     12        -11.687317   1.000000
     13        -10.922858   1.000000
     14        -10.922365   1.000000
     15        -10.831646   1.000000
     16        -10.831562   1.000000
     17        -10.798504   1.000000
     18        -10.798430   1.000000
     19        -10.777412   1.000000
     20        -10.777353   1.000000
     21        -10.708020   1.000000
     22        -10.707779   1.000000
     23        -10.678260   1.000000
     24        -10.678085   1.000000
     25        -10.662045   1.000000
     26        -10.661908   1.000000
     27        -10.640414   1.000000
     28        -10.640370   1.000000
     29        -10.623344   1.000000
     30        -10.623250   1.000000
     31          0.011113   1.000000
     32          0.012055   1.000000
     33          1.402067   1.000000
     34          1.402748   1.000000
     35          1.803489   1.000000
     36          1.807108   1.000000
     37          6.012053   1.000000
     38          6.025216   1.000000
     39          6.736738   1.000000
     40          6.751386   1.000000
     41          6.875270   1.000000
     42          6.876904   1.000000
     43          7.188383   1.000000
     44          7.195385   1.000000
     45          7.241217   1.000000
     46          7.265106   1.000000
     47          7.595648   1.000000
     48          7.599704   1.000000
     49          7.862048   1.000000
     50          7.879665   1.000000
     51          7.891347   1.000000
     52          7.905489   1.000000
     53          8.093001   1.000000
     54          8.110943   1.000000
     55          8.695736   1.000000
     56          8.742242   1.000000
     57          8.827961   1.000000
     58          8.856490   1.000000
     59          9.074724   1.000000
     60          9.110243   1.000000
     61          9.144097   1.000000
     62          9.170260   1.000000
     63          9.389768   0.999985
     64          9.410671   0.999972
     65          9.728894   0.962316
     66          9.792030   0.908534
     67         10.830030   0.000000
     68         10.850832   0.000000
     69         11.047654   0.000000
     70         11.068738   0.000000
     71         11.096333   0.000000
     72         11.113121   0.000000
     73         12.227300   0.000000
     74         12.235822   0.000000
     75         12.589274   0.000000
     76         12.597343   0.000000
     77         12.701007   0.000000
     78         12.711457   0.000000
     79         12.967501   0.000000
     80         12.970359   0.000000
     81         13.517510   0.000000
     82         13.540089   0.000000
     83         14.477622   0.000000
     84         14.478163   0.000000
     85         15.107930   0.000000
     86         15.116907   0.000000
     87         16.463030   0.000000
     88         16.466110   0.000000

  0.2456140E+00  0.2456140E+00  0.0000000E+00  0.5555556E-02
      1        -11.938120   1.000000
      2        -11.937675   1.000000
      3        -11.804865   1.000000
      4        -11.804791   1.000000
      5        -11.780714   1.000000
      6        -11.780655   1.000000
      7        -11.762687   1.000000
      8        -11.762468   1.000000
      9        -11.698967   1.000000
     10        -11.698930   1.000000
     11        -11.687266   1.000000
     12        -11.687241   1.000000
     13        -10.922873   1.000000
     14        -10.922377   1.000000
     15        -10.831428   1.000000
     16        -10.831345   1.000000
     17        -10.801430   1.000000
     18        -10.801353   1.000000
     19        -10.774431   1.000000
     20        -10.774386   1.000000
     21        -10.707796   1.000000
     22        -10.707549   1.000000
     23        -10.678312   1.000000
     24        -10.678140   1.000000
     25        -10.663479   1.000000
     26        -10.663342   1.000000
     27        -10.641672   1.000000
     28        -10.641623   1.000000
     29        -10.623361   1.000000
     30        -10.623271   1.000000
     31         -0.178637   1.000000
     32         -0.177648   1.000000
     33          1.595673   1.000000
     34          1.596352   1.000000
     35          1.943131   1.000000
     36          1.946974   1.000000
     37          5.870622   1.000000
     38          5.883073   1.000000
     39          6.708656   1.000000
     40          6.720631   1.000000
     41          6.837555   1.000000
     42          6.840609   1.000000
     43          7.248823   1.000000
     44          7.258445   1.000000
     45          7.276876   1.000000
     46          7.298665   1.000000
     47          7.567171   1.000000
     48          7.567958   1.000000
     49          7.869263   1.000000
     50          7.887688   1.000000
     51          7.902562   1.000000
     52          7.911599   1.000000
     53          8.121852   1.000000
     54          8.140444   1.000000
     55          8.625890   1.000000
     56          8.676449   1.000000
     57          8.784326   1.000000
     58          8.818384   1.000000
     59          9.114043   1.000000
     60          9.145234   1.000000
     61          9.199513   1.000000
     62          9.224628   1.000000
     63          9.403794   0.999977
     64          9.425449   0.999956
     65          9.716095   0.969169
     66          9.783402   0.918159
     67         10.748108   0.000000
     68         10.769053   0.000000
     69         10.886187   0.000000
     70         10.910840   0.000000
     71         11.052984   0.000000
     72         11.090751   0.000000
     73         12.462632   0.000000
     74         12.467364   0.000000
     75         12.787988   0.000000
     76         12.795746   0.000000
     77         12.818151   0.000000
     78         12.825896   0.000000
     79         12.869999   0.000000
     80         12.873308   0.000000
     81         13.561004   0.000000
     82         13.583182   0.000000
     83         14.540177   0.000000
     84         14.541779   0.000000
     85         14.715472   0.000000
     86         14.726275   0.000000
     87         16.262632   0.000000
     88         16.265488   0.000000

  0.2280702E+00  0.2280702E+00  0.0000000E+00  0.5555556E-02
      1        -11.938352   1.000000
      2        -11.937907   1.000000
      3        -11.807225   1.000000
      4        -11.807150   1.000000
      5        -11.777221   1.000000
      6        -11.777170   1.000000
      7        -11.762896   1.000000
      8        -11.762678   1.000000
      9        -11.699276   1.000000
     10        -11.699241   1.000000
     11        -11.687282   1.000000
     12        -11.687255   1.000000
     13        -10.922916   1.000000
     14        -10.922418   1.000000
     15        -10.831313   1.000000
     16        -10.831234   1.000000
     17        -10.804533   1.000000
     18        -10.804452   1.000000
     19        -10.770919   1.000000
     20        -10.770885   1.000000
     21        -10.707851   1.000000
     22        -10.707599   1.000000
     23        -10.678915   1.000000
     24        -10.678744   1.000000
     25        -10.665165   1.000000
     26        -10.665032   1.000000
     27        -10.642786   1.000000
     28        -10.642737   1.000000
     29        -10.623468   1.000000
     30        -10.623384   1.000000
     31         -0.358345   1.000000
     32         -0.357322   1.000000
     33          1.801476   1.000000
     34          1.802157   1.000000
     35          2.088575   1.000000
     36          2.092699   1.000000
     37          5.743616   1.000000
     38          5.755325   1.000000
     39          6.676647   1.000000
     40          6.686232   1.000000
     41          6.800661   1.000000
     42          6.805037   1.000000
     43          7.278008   1.000000
     44          7.287990   1.000000
     45          7.306342   1.000000
     46          7.326671   1.000000
     47          7.554172   1.000000
     48          7.557386   1.000000
     49          7.873760   1.000000
     50          7.891965   1.000000
     51          7.920276   1.000000
     52          7.926146   1.000000
     53          8.144454   1.000000
     54          8.162693   1.000000
     55          8.553371   1.000000
     56          8.607641   1.000000
     57          8.739957   1.000000
     58          8.777023   1.000000
     59          9.153340   1.000000
     60          9.180719   1.000000
     61          9.254278   1.000000
     62          9.276232   1.000000
     63          9.419385   0.999964
     64          9.442004   0.999930
     65          9.702796   0.975163
     66          9.775498   0.926287
     67         10.674089   0.000000
     68         10.694288   0.000000
     69         10.717384   0.000000
     70         10.739807   0.000000
     71         11.050235   0.000000
     72         11.090030   0.000000
     73         12.670835   0.000000
     74         12.673788   0.000000
     75         12.744647   0.000000
     76         12.750478   0.000000
     77         12.952342   0.000000
     78         12.957539   0.000000
     79         13.027004   0.000000
     80         13.035628   0.000000
     81         13.548487   0.000000
     82         13.570475   0.000000
     83         14.385932   0.000000
     84         14.390146   0.000000
     85         14.522071   0.000000
     86         14.529068   0.000000
     87         16.207130   0.000000
     88         16.209751   0.000000

  0.2105263E+00  0.2105263E+00  0.0000000E+00  0.5555556E-02
      1        -11.938647   1.000000
      2        -11.938200   1.000000
      3        -11.809565   1.000000
      4        -11.809487   1.000000
      5        -11.773548   1.000000
      6        -11.773508   1.000000
      7        -11.763127   1.000000
      8        -11.762911   1.000000
      9        -11.699657   1.000000
     10        -11.699624   1.000000
     11        -11.687382   1.000000
     12        -11.687352   1.000000
     13        -10.923012   1.000000
     14        -10.922513   1.000000
     15        -10.831362   1.000000
     16        -10.831287   1.000000
     17        -10.807730   1.000000
     18        -10.807644   1.000000
     19        -10.766813   1.000000
     20        -10.766786   1.000000
     21        -10.708133   1.000000
     22        -10.707882   1.000000
     23        -10.680309   1.000000
     24        -10.680138   1.000000
     25        -10.666903   1.000000
     26        -10.666781   1.000000
     27        -10.643866   1.000000
     28        -10.643823   1.000000
     29        -10.623617   1.000000
     30        -10.623540   1.000000
     31         -0.526742   1.000000
     32         -0.525693   1.000000
     33          2.018954   1.000000
     34          2.019644   1.000000
     35          2.236483   1.000000
     36          2.240941   1.000000
     37          5.633921   1.000000
     38          5.644885   1.000000
     39          6.641090   1.000000
     40          6.648603   1.000000
     41          6.765082   1.000000
     42          6.770632   1.000000
     43          7.270778   1.000000
     44          7.279515   1.000000
     45          7.332636   1.000000
     46          7.350629   1.000000
     47          7.564154   1.000000
     48          7.567906   1.000000
     49          7.875259   1.000000
     50          7.891199   1.000000
     51          7.945349   1.000000
     52          7.950519   1.000000
     53          8.156931   1.000000
     54          8.173835   1.000000
     55          8.480622   1.000000
     56          8.538482   1.000000
     57          8.696162   1.000000
     58          8.734954   1.000000
     59          9.191735   1.000000
     60          9.215630   1.000000
     61          9.305963   0.999999
     62          9.323239   0.999998
     63          9.435752   0.999941
     64          9.459493   0.999885
     65          9.689641   0.980098
     66          9.769120   0.932383
     67         10.535284   0.000044
     68         10.564063   0.000018
     69         10.633331   0.000002
     70         10.653402   0.000001
     71         11.050063   0.000000
     72         11.091409   0.000000
     73         12.616969   0.000000
     74         12.619033   0.000000
     75         12.853312   0.000000
     76         12.855464   0.000000
     77         13.125681   0.000000
     78         13.128691   0.000000
     79         13.235184   0.000000
     80         13.241058   0.000000
     81         13.427216   0.000000
     82         13.444298   0.000000
     83         14.235956   0.000000
     84         14.240635   0.000000
     85         14.368865   0.000000
     86         14.377042   0.000000
     87         16.318691   0.000000
     88         16.321719   0.000000

  0.1929825E+00  0.1929825E+00  0.0000000E+00  0.5555556E-02
      1        -11.938961   1.000000
      2        -11.938514   1.000000
      3        -11.811763   1.000000
      4        -11.811683   1.000000
      5        -11.769872   1.000000
      6        -11.769849   1.000000
      7        -11.763251   1.000000
      8        -11.763045   1.000000
      9        -11.700073   1.000000
     10        -11.700042   1.000000
     11        -11.687542   1.000000
     12        -11.687510   1.000000
     13        -10.923099   1.000000
     14        -10.922599   1.000000
     15        -10.831433   1.000000
     16        -10.831363   1.000000
     17        -10.810877   1.000000
     18        -10.810787   1.000000
     19        -10.762247   1.000000
     20        -10.762222   1.000000
     21        -10.708663   1.000000
     22        -10.708417   1.000000
     23        -10.682433   1.000000
     24        -10.682260   1.000000
     25        -10.668492   1.000000
     26        -10.668385   1.000000
     27        -10.644881   1.000000
     28        -10.644849   1.000000
     29        -10.623756   1.000000
     30        -10.623687   1.000000
     31         -0.683057   1.000000
     32         -0.681988   1.000000
     33          2.247401   1.000000
     34          2.248119   1.000000
     35          2.383452   1.000000
     36          2.388281   1.000000
     37          5.544458   1.000000
     38          5.554686   1.000000
     39          6.602198   1.000000
     40          6.607965   1.000000
     41          6.731154   1.000000
     42          6.737757   1.000000
     43          7.239404   1.000000
     44          7.245774   1.000000
     45          7.354273   1.000000
     46          7.369702   1.000000
     47          7.586792   1.000000
     48          7.589789   1.000000
     49          7.874409   1.000000
     50          7.887639   1.000000
     51          7.976788   1.000000
     52          7.981923   1.000000
     53          8.155722   1.000000
     54          8.170620   1.000000
     55          8.409799   1.000000
     56          8.470901   1.000000
     57          8.653818   1.000000
     58          8.693690   1.000000
     59          9.228461   1.000000
     60          9.248783   1.000000
     61          9.352366   0.999996
     62          9.364212   0.999993
     63          9.452209   0.999906
     64          9.477312   0.999813
     65          9.677294   0.983947
     66          9.764860   0.936234
     67         10.383126   0.002200
     68         10.414430   0.001073
     69         10.588742   0.000008
     70         10.608761   0.000004
     71         11.050199   0.000000
     72         11.092906   0.000000
     73         12.487025   0.000000
     74         12.489913   0.000000
     75         12.960865   0.000000
     76         12.968275   0.000000
     77         13.126891   0.000000
     78         13.143776   0.000000
     79         13.329787   0.000000
     80         13.332040   0.000000
     81         13.526586   0.000000
     82         13.535027   0.000000
     83         14.133630   0.000000
     84         14.135830   0.000000
     85         14.257105   0.000000
     86         14.269651   0.000000
     87         16.368940   0.000000
     88         16.376658   0.000000

  0.1754386E+00  0.1754386E+00  0.0000000E+00  0.5555556E-02
      1        -11.939248   1.000000
      2        -11.938801   1.000000
      3        -11.813771   1.000000
      4        -11.813689   1.000000
      5        -11.766484   1.000000
      6        -11.766443   1.000000
      7        -11.762876   1.000000
      8        -11.762723   1.000000
      9        -11.700513   1.000000
     10        -11.700485   1.000000
     11        -11.687699   1.000000
     12        -11.687665   1.000000
     13        -10.923116   1.000000
     14        -10.922615   1.000000
     15        -10.831445   1.000000
     16        -10.831380   1.000000
     17        -10.813822   1.000000
     18        -10.813728   1.000000
     19        -10.757163   1.000000
     20        -10.757138   1.000000
     21        -10.709309   1.000000
     22        -10.709072   1.000000
     23        -10.685124   1.000000
     24        -10.684945   1.000000
     25        -10.669915   1.000000
     26        -10.669826   1.000000
     27        -10.645803   1.000000
     28        -10.645785   1.000000
     29        -10.623824   1.000000
     30        -10.623765   1.000000
     31         -0.826789   1.000000
     32         -0.825705   1.000000
     33          2.485070   1.000000
     34          2.486043   1.000000
     35          2.526763   1.000000
     36          2.531705   1.000000
     37          5.478132   1.000000
     38          5.487636   1.000000
     39          6.559952   1.000000
     40          6.564294   1.000000
     41          6.699164   1.000000
     42          6.706723   1.000000
     43          7.196873   1.000000
     44          7.200852   1.000000
     45          7.370598   1.000000
     46          7.383499   1.000000
     47          7.609688   1.000000
     48          7.611909   1.000000
     49          7.871747   1.000000
     50          7.882335   1.000000
     51          8.012982   1.000000
     52          8.018117   1.000000
     53          8.137792   1.000000
     54          8.150846   1.000000
     55          8.342666   1.000000
     56          8.405798   1.000000
     57          8.613563   1.000000
     58          8.654224   1.000000
     59          9.262732   1.000000
     60          9.279143   1.000000
     61          9.390222   0.999985
     62          9.398955   0.999980
     63          9.467924   0.999855
     64          9.494967   0.999701
     65          9.666425   0.986789
     66          9.762836   0.938002
     67         10.243416   0.031443
     68         10.277320   0.017876
     69         10.555108   0.000024
     70         10.574897   0.000013
     71         11.048704   0.000000
     72         11.092694   0.000000
     73         12.342112   0.000000
     74         12.345824   0.000000
     75         12.776251   0.000000
     76         12.798519   0.000000
     77         13.120740   0.000000
     78         13.126528   0.000000
     79         13.544306   0.000000
     80         13.545861   0.000000
     81         13.767178   0.000000
     82         13.776116   0.000000
     83         13.904910   0.000000
     84         13.910570   0.000000
     85         14.340111   0.000000
     86         14.350083   0.000000
     87         16.264445   0.000000
     88         16.269755   0.000000

  0.1578947E+00  0.1578947E+00  0.0000000E+00  0.5555556E-02
      1        -11.939547   1.000000
      2        -11.939099   1.000000
      3        -11.815627   1.000000
      4        -11.815542   1.000000
      5        -11.764897   1.000000
      6        -11.764719   1.000000
      7        -11.760650   1.000000
      8        -11.760627   1.000000
      9        -11.701013   1.000000
     10        -11.700988   1.000000
     11        -11.687865   1.000000
     12        -11.687831   1.000000
     13        -10.923143   1.000000
     14        -10.922642   1.000000
     15        -10.831451   1.000000
     16        -10.831389   1.000000
     17        -10.816657   1.000000
     18        -10.816558   1.000000
     19        -10.751642   1.000000
     20        -10.751614   1.000000
     21        -10.710136   1.000000
     22        -10.709915   1.000000
     23        -10.688164   1.000000
     24        -10.687972   1.000000
     25        -10.671417   1.000000
     26        -10.671343   1.000000
     27        -10.646756   1.000000
     28        -10.646749   1.000000
     29        -10.623834   1.000000
     30        -10.623783   1.000000
     31         -0.957532   1.000000
     32         -0.956436   1.000000
     33          2.657072   1.000000
     34          2.663079   1.000000
     35          2.736199   1.000000
     36          2.736704   1.000000
     37          5.437667   1.000000
     38          5.446467   1.000000
     39          6.514056   1.000000
     40          6.517289   1.000000
     41          6.669394   1.000000
     42          6.677822   1.000000
     43          7.150536   1.000000
     44          7.152448   1.000000
     45          7.381853   1.000000
     46          7.392364   1.000000
     47          7.625774   1.000000
     48          7.627565   1.000000
     49          7.867507   1.000000
     50          7.875623   1.000000
     51          8.051927   1.000000
     52          8.056785   1.000000
     53          8.101275   1.000000
     54          8.113821   1.000000
     55          8.280408   1.000000
     56          8.343058   1.000000
     57          8.575906   1.000000
     58          8.617273   1.000000
     59          9.293732   0.999999
     60          9.305830   0.999999
     61          9.416271   0.999967
     62          9.428028   0.999953
     63          9.481820   0.999788
     64          9.512033   0.999536
     65          9.657599   0.988766
     66          9.762328   0.938439
     67         10.117609   0.165921
     68         10.154423   0.109213
     69         10.529637   0.000051
     70         10.549283   0.000029
     71         11.043263   0.000000
     72         11.088545   0.000000
     73         12.181022   0.000000
     74         12.185933   0.000000
     75         12.490396   0.000000
     76         12.514923   0.000000
     77         13.209893   0.000000
     78         13.214375   0.000000
     79         13.656886   0.000000
     80         13.661726   0.000000
     81         13.780743   0.000000
     82         13.784040   0.000000
     83         14.037371   0.000000
     84         14.046696   0.000000
     85         14.462650   0.000000
     86         14.471400   0.000000
     87         16.154071   0.000000
     88         16.159009   0.000000

  0.1403509E+00  0.1403509E+00  0.0000000E+00  0.5555556E-02
      1        -11.939843   1.000000
      2        -11.939396   1.000000
      3        -11.817407   1.000000
      4        -11.817320   1.000000
      5        -11.764732   1.000000
      6        -11.764519   1.000000
      7        -11.757127   1.000000
      8        -11.757114   1.000000
      9        -11.701605   1.000000
     10        -11.701582   1.000000
     11        -11.688060   1.000000
     12        -11.688024   1.000000
     13        -10.923169   1.000000
     14        -10.922668   1.000000
     15        -10.831476   1.000000
     16        -10.831413   1.000000
     17        -10.819462   1.000000
     18        -10.819359   1.000000
     19        -10.745893   1.000000
     20        -10.745862   1.000000
     21        -10.711256   1.000000
     22        -10.711056   1.000000
     23        -10.691386   1.000000
     24        -10.691173   1.000000
     25        -10.673154   1.000000
     26        -10.673093   1.000000
     27        -10.647790   1.000000
     28        -10.647773   1.000000
     29        -10.623777   1.000000
     30        -10.623732   1.000000
     31         -1.074995   1.000000
     32         -1.073889   1.000000
     33          2.778242   1.000000
     34          2.784778   1.000000
     35          2.991862   1.000000
     36          2.992440   1.000000
     37          5.425129   1.000000
     38          5.433261   1.000000
     39          6.463791   1.000000
     40          6.466225   1.000000
     41          6.642111   1.000000
     42          6.651326   1.000000
     43          7.104321   1.000000
     44          7.104611   1.000000
     45          7.388269   1.000000
     46          7.396593   1.000000
     47          7.631176   1.000000
     48          7.632844   1.000000
     49          7.861718   1.000000
     50          7.867442   1.000000
     51          8.043942   1.000000
     52          8.057835   1.000000
     53          8.092790   1.000000
     54          8.097568   1.000000
     55          8.224111   1.000000
     56          8.283042   1.000000
     57          8.541339   1.000000
     58          8.583444   1.000000
     59          9.320476   0.999998
     60          9.328099   0.999998
     61          9.431808   0.999948
     62          9.448661   0.999915
     63          9.493248   0.999714
     64          9.528294   0.999305
     65          9.650976   0.990075
     66          9.761658   0.939014
     67         10.006496   0.426723
     68         10.046477   0.320095
     69         10.510582   0.000089
     70         10.530246   0.000050
     71         11.030525   0.000000
     72         11.077192   0.000000
     73         12.007662   0.000000
     74         12.013963   0.000000
     75         12.232055   0.000000
     76         12.258300   0.000000
     77         13.290315   0.000000
     78         13.293795   0.000000
     79         13.481715   0.000000
     80         13.488626   0.000000
     81         13.987211   0.000000
     82         13.988713   0.000000
     83         14.308203   0.000000
     84         14.317492   0.000000
     85         14.605090   0.000000
     86         14.612569   0.000000
     87         16.050773   0.000000
     88         16.055393   0.000000

  0.1228070E+00  0.1228070E+00  0.0000000E+00  0.5555556E-02
      1        -11.940176   1.000000
      2        -11.939728   1.000000
      3        -11.818932   1.000000
      4        -11.818842   1.000000
      5        -11.764824   1.000000
      6        -11.764604   1.000000
      7        -11.753611   1.000000
      8        -11.753595   1.000000
      9        -11.702228   1.000000
     10        -11.702209   1.000000
     11        -11.688334   1.000000
     12        -11.688297   1.000000
     13        -10.923268   1.000000
     14        -10.922768   1.000000
     15        -10.831473   1.000000
     16        -10.831405   1.000000
     17        -10.821981   1.000000
     18        -10.821874   1.000000
     19        -10.740114   1.000000
     20        -10.740080   1.000000
     21        -10.712609   1.000000
     22        -10.712434   1.000000
     23        -10.694603   1.000000
     24        -10.694362   1.000000
     25        -10.675190   1.000000
     26        -10.675141   1.000000
     27        -10.648868   1.000000
     28        -10.648836   1.000000
     29        -10.623782   1.000000
     30        -10.623740   1.000000
     31         -1.178997   1.000000
     32         -1.177883   1.000000
     33          2.883100   1.000000
     34          2.890189   1.000000
     35          3.254360   1.000000
     36          3.254939   1.000000
     37          5.441245   1.000000
     38          5.448770   1.000000
     39          6.407893   1.000000
     40          6.409839   1.000000
     41          6.617556   1.000000
     42          6.627474   1.000000
     43          7.059584   1.000000
     44          7.060962   1.000000
     45          7.389579   1.000000
     46          7.395937   1.000000
     47          7.623441   1.000000
     48          7.625173   1.000000
     49          7.853754   1.000000
     50          7.856692   1.000000
     51          7.968242   1.000000
     52          7.986577   1.000000
     53          8.130962   1.000000
     54          8.135267   1.000000
     55          8.176264   1.000000
     56          8.228779   1.000000
     57          8.510341   1.000000
     58          8.553281   1.000000
     59          9.341607   0.999997
     60          9.345640   0.999996
     61          9.438473   0.999936
     62          9.458843   0.999887
     63          9.502972   0.999632
     64          9.543868   0.998988
     65          9.645652   0.991029
     66          9.758295   0.941830
     67          9.910825   0.688559
     68          9.953931   0.574156
     69         10.497034   0.000129
     70         10.516896   0.000074
     71         11.006213   0.000000
     72         11.054410   0.000000
     73         11.833738   0.000000
     74         11.840957   0.000000
     75         12.014817   0.000000
     76         12.041864   0.000000
     77         13.311416   0.000000
     78         13.316799   0.000000
     79         13.383795   0.000000
     80         13.386275   0.000000
     81         14.197190   0.000000
     82         14.198262   0.000000
     83         14.588122   0.000000
     84         14.597132   0.000000
     85         14.759305   0.000000
     86         14.765291   0.000000
     87         15.960994   0.000000
     88         15.965282   0.000000

  0.1052632E+00  0.1052632E+00  0.0000000E+00  0.5555556E-02
      1        -11.940468   1.000000
      2        -11.940020   1.000000
      3        -11.820325   1.000000
      4        -11.820234   1.000000
      5        -11.764936   1.000000
      6        -11.764714   1.000000
      7        -11.750149   1.000000
      8        -11.750130   1.000000
      9        -11.702917   1.000000
     10        -11.702901   1.000000
     11        -11.688551   1.000000
     12        -11.688514   1.000000
     13        -10.923321   1.000000
     14        -10.922822   1.000000
     15        -10.831424   1.000000
     16        -10.831346   1.000000
     17        -10.824300   1.000000
     18        -10.824188   1.000000
     19        -10.734197   1.000000
     20        -10.734160   1.000000
     21        -10.714046   1.000000
     22        -10.713896   1.000000
     23        -10.697485   1.000000
     24        -10.697210   1.000000
     25        -10.677545   1.000000
     26        -10.677506   1.000000
     27        -10.649957   1.000000
     28        -10.649913   1.000000
     29        -10.623662   1.000000
     30        -10.623620   1.000000
     31         -1.269396   1.000000
     32         -1.268277   1.000000
     33          2.969971   1.000000
     34          2.977591   1.000000
     35          3.520953   1.000000
     36          3.521503   1.000000
     37          5.484556   1.000000
     38          5.491558   1.000000
     39          6.344414   1.000000
     40          6.346195   1.000000
     41          6.595965   1.000000
     42          6.606499   1.000000
     43          7.019374   1.000000
     44          7.022033   1.000000
     45          7.384330   1.000000
     46          7.388930   1.000000
     47          7.601700   1.000000
     48          7.603633   1.000000
     49          7.831730   1.000000
     50          7.836926   1.000000
     51          7.883827   1.000000
     52          7.909096   1.000000
     53          8.135399   1.000000
     54          8.167246   1.000000
     55          8.170301   1.000000
     56          8.186900   1.000000
     57          8.483355   1.000000
     58          8.527260   1.000000
     59          9.354933   0.999995
     60          9.359152   0.999994
     61          9.438228   0.999937
     62          9.458882   0.999887
     63          9.512453   0.999531
     64          9.558647   0.998568
     65          9.640176   0.991926
     66          9.749415   0.948777
     67          9.832325   0.852416
     68          9.877334   0.766875
     69         10.488197   0.000165
     70         10.508382   0.000094
     71         10.964934   0.000000
     72         11.014811   0.000000
     73         11.676902   0.000000
     74         11.684321   0.000000
     75         11.841330   0.000000
     76         11.868248   0.000000
     77         13.206525   0.000000
     78         13.214262   0.000000
     79         13.431173   0.000000
     80         13.433601   0.000000
     81         14.399087   0.000000
     82         14.399879   0.000000
     83         14.865535   0.000000
     84         14.871438   0.000000
     85         14.929220   0.000000
     86         14.932255   0.000000
     87         15.891275   0.000000
     88         15.895326   0.000000

  0.8771930E-01  0.8771930E-01  0.0000000E+00  0.5555556E-02
      1        -11.940737   1.000000
      2        -11.940290   1.000000
      3        -11.821523   1.000000
      4        -11.821431   1.000000
      5        -11.765013   1.000000
      6        -11.764790   1.000000
      7        -11.746922   1.000000
      8        -11.746898   1.000000
      9        -11.703610   1.000000
     10        -11.703597   1.000000
     11        -11.688781   1.000000
     12        -11.688743   1.000000
     13        -10.923391   1.000000
     14        -10.922893   1.000000
     15        -10.831340   1.000000
     16        -10.831249   1.000000
     17        -10.826306   1.000000
     18        -10.826189   1.000000
     19        -10.728188   1.000000
     20        -10.728148   1.000000
     21        -10.715561   1.000000
     22        -10.715431   1.000000
     23        -10.699968   1.000000
     24        -10.699658   1.000000
     25        -10.680264   1.000000
     26        -10.680235   1.000000
     27        -10.650958   1.000000
     28        -10.650904   1.000000
     29        -10.623556   1.000000
     30        -10.623512   1.000000
     31         -1.346036   1.000000
     32         -1.344911   1.000000
     33          3.038483   1.000000
     34          3.046574   1.000000
     35          3.788225   1.000000
     36          3.788708   1.000000
     37          5.550553   1.000000
     38          5.557129   1.000000
     39          6.270865   1.000000
     40          6.272805   1.000000
     41          6.577528   1.000000
     42          6.588590   1.000000
     43          6.985370   1.000000
     44          6.989167   1.000000
     45          7.368606   1.000000
     46          7.371604   1.000000
     47          7.568446   1.000000
     48          7.570565   1.000000
     49          7.754192   1.000000
     50          7.758772   1.000000
     51          7.853010   1.000000
     52          7.870080   1.000000
     53          8.108360   1.000000
     54          8.149281   1.000000
     55          8.201154   1.000000
     56          8.202948   1.000000
     57          8.460786   1.000000
     58          8.505784   1.000000
     59          9.360731   0.999994
     60          9.366907   0.999993
     61          9.433986   0.999944
     62          9.451371   0.999908
     63          9.521664   0.999410
     64          9.571842   0.998066
     65          9.633406   0.992925
     66          9.729813   0.961779
     67          9.775899   0.925890
     68          9.816955   0.876064
     69         10.483320   0.000188
     70         10.503806   0.000107
     71         10.903511   0.000000
     72         10.955247   0.000000
     73         11.552535   0.000000
     74         11.560238   0.000000
     75         11.709474   0.000000
     76         11.735809   0.000000
     77         13.120389   0.000000
     78         13.128369   0.000000
     79         13.477436   0.000000
     80         13.479391   0.000000
     81         14.586950   0.000000
     82         14.587529   0.000000
     83         15.048669   0.000000
     84         15.051927   0.000000
     85         15.188907   0.000000
     86         15.197311   0.000000
     87         15.849944   0.000000
     88         15.853764   0.000000

  0.7017544E-01  0.7017544E-01  0.0000000E+00  0.5555556E-02
      1        -11.941002   1.000000
      2        -11.940555   1.000000
      3        -11.822528   1.000000
      4        -11.822435   1.000000
      5        -11.765115   1.000000
      6        -11.764891   1.000000
      7        -11.744120   1.000000
      8        -11.744092   1.000000
      9        -11.704328   1.000000
     10        -11.704317   1.000000
     11        -11.688993   1.000000
     12        -11.688955   1.000000
     13        -10.923495   1.000000
     14        -10.922998   1.000000
     15        -10.831301   1.000000
     16        -10.831196   1.000000
     17        -10.828010   1.000000
     18        -10.827886   1.000000
     19        -10.722449   1.000000
     20        -10.722401   1.000000
     21        -10.716998   1.000000
     22        -10.716879   1.000000
     23        -10.702015   1.000000
     24        -10.701672   1.000000
     25        -10.683419   1.000000
     26        -10.683396   1.000000
     27        -10.651920   1.000000
     28        -10.651857   1.000000
     29        -10.623463   1.000000
     30        -10.623415   1.000000
     31         -1.408827   1.000000
     32         -1.407698   1.000000
     33          3.089720   1.000000
     34          3.098197   1.000000
     35          4.051039   1.000000
     36          4.051390   1.000000
     37          5.630901   1.000000
     38          5.637130   1.000000
     39          6.185240   1.000000
     40          6.187627   1.000000
     41          6.562413   1.000000
     42          6.573912   1.000000
     43          6.958924   1.000000
     44          6.963768   1.000000
     45          7.335071   1.000000
     46          7.336624   1.000000
     47          7.531516   1.000000
     48          7.533503   1.000000
     49          7.652748   1.000000
     50          7.658903   1.000000
     51          7.845891   1.000000
     52          7.858490   1.000000
     53          8.089459   1.000000
     54          8.126982   1.000000
     55          8.226889   1.000000
     56          8.228410   1.000000
     57          8.442857   1.000000
     58          8.489010   1.000000
     59          9.360054   0.999994
     60          9.367269   0.999993
     61          9.428797   0.999952
     62          9.439951   0.999934
     63          9.529610   0.999282
     64          9.582436   0.997552
     65          9.625210   0.993987
     66          9.696752   0.977545
     67          9.744824   0.952101
     68          9.773301   0.928432
     69         10.481081   0.000200
     70         10.501600   0.000114
     71         10.827274   0.000000
     72         10.881188   0.000000
     73         11.465745   0.000000
     74         11.474163   0.000000
     75         11.614720   0.000000
     76         11.640161   0.000000
     77         13.056274   0.000000
     78         13.064331   0.000000
     79         13.513065   0.000000
     80         13.514616   0.000000
     81         14.752603   0.000000
     82         14.753014   0.000000
     83         15.178276   0.000000
     84         15.180549   0.000000
     85         15.490203   0.000000
     86         15.498805   0.000000
     87         15.846292   0.000000
     88         15.849775   0.000000

  0.5263158E-01  0.5263158E-01  0.0000000E+00  0.5555556E-02
      1        -11.941197   1.000000
      2        -11.940749   1.000000
      3        -11.823327   1.000000
      4        -11.823233   1.000000
      5        -11.765198   1.000000
      6        -11.764974   1.000000
      7        -11.741758   1.000000
      8        -11.741724   1.000000
      9        -11.704973   1.000000
     10        -11.704963   1.000000
     11        -11.689143   1.000000
     12        -11.689105   1.000000
     13        -10.923560   1.000000
     14        -10.923064   1.000000
     15        -10.831284   1.000000
     16        -10.831167   1.000000
     17        -10.829297   1.000000
     18        -10.829166   1.000000
     19        -10.719047   1.000000
     20        -10.718922   1.000000
     21        -10.715993   1.000000
     22        -10.715967   1.000000
     23        -10.703559   1.000000
     24        -10.703191   1.000000
     25        -10.686953   1.000000
     26        -10.686932   1.000000
     27        -10.652690   1.000000
     28        -10.652622   1.000000
     29        -10.623326   1.000000
     30        -10.623276   1.000000
     31         -1.457747   1.000000
     32         -1.456615   1.000000
     33          3.125854   1.000000
     34          3.134622   1.000000
     35          4.301018   1.000000
     36          4.301141   1.000000
     37          5.712103   1.000000
     38          5.717931   1.000000
     39          6.089609   1.000000
     40          6.092566   1.000000
     41          6.550738   1.000000
     42          6.562582   1.000000
     43          6.941241   1.000000
     44          6.947103   1.000000
     45          7.279208   1.000000
     46          7.279978   1.000000
     47          7.499496   1.000000
     48          7.501280   1.000000
     49          7.566157   1.000000
     50          7.571111   1.000000
     51          7.841887   1.000000
     52          7.852836   1.000000
     53          8.077096   1.000000
     54          8.112193   1.000000
     55          8.245951   1.000000
     56          8.248738   1.000000
     57          8.429629   1.000000
     58          8.476856   1.000000
     59          9.353569   0.999995
     60          9.361870   0.999994
     61          9.424090   0.999958
     62          9.428414   0.999952
     63          9.535492   0.999172
     64          9.589588   0.997139
     65          9.616133   0.994996
     66          9.666922   0.986669
     67          9.723257   0.965474
     68          9.746525   0.950890
     69         10.480220   0.000204
     70         10.500128   0.000119
     71         10.750584   0.000000
     72         10.806795   0.000000
     73         11.410683   0.000000
     74         11.419554   0.000000
     75         11.550904   0.000000
     76         11.575181   0.000000
     77         13.010314   0.000000
     78         13.018398   0.000000
     79         13.538539   0.000000
     80         13.539784   0.000000
     81         14.885430   0.000000
     82         14.885727   0.000000
     83         15.276686   0.000000
     84         15.278066   0.000000
     85         15.796942   0.000000
     86         15.804926   0.000000
     87         15.885094   0.000000
     88         15.887657   0.000000

  0.3508772E-01  0.3508772E-01  0.0000000E+00  0.5555556E-02
      1        -11.941311   1.000000
      2        -11.940863   1.000000
      3        -11.823908   1.000000
      4        -11.823813   1.000000
      5        -11.765246   1.000000
      6        -11.765022   1.000000
      7        -11.739964   1.000000
      8        -11.739926   1.000000
      9        -11.705434   1.000000
     10        -11.705423   1.000000
     11        -11.689248   1.000000
     12        -11.689209   1.000000
     13        -10.923560   1.000000
     14        -10.923065   1.000000
     15        -10.831344   1.000000
     16        -10.831232   1.000000
     17        -10.830119   1.000000
     18        -10.829995   1.000000
     19        -10.719836   1.000000
     20        -10.719697   1.000000
     21        -10.710726   1.000000
     22        -10.710698   1.000000
     23        -10.704620   1.000000
     24        -10.704233   1.000000
     25        -10.690798   1.000000
     26        -10.690773   1.000000
     27        -10.653156   1.000000
     28        -10.653083   1.000000
     29        -10.623214   1.000000
     30        -10.623162   1.000000
     31         -1.492727   1.000000
     32         -1.491592   1.000000
     33          3.149396   1.000000
     34          3.158364   1.000000
     35          4.522814   1.000000
     36          4.523121   1.000000
     37          5.770480   1.000000
     38          5.775158   1.000000
     39          6.001121   1.000000
     40          6.003995   1.000000
     41          6.542541   1.000000
     42          6.554634   1.000000
     43          6.932942   1.000000
     44          6.939850   1.000000
     45          7.212352   1.000000
     46          7.213598   1.000000
     47          7.466248   1.000000
     48          7.467864   1.000000
     49          7.513122   1.000000
     50          7.515960   1.000000
     51          7.839392   1.000000
     52          7.849535   1.000000
     53          8.069449   1.000000
     54          8.103026   1.000000
     55          8.258879   1.000000
     56          8.262879   1.000000
     57          8.420866   1.000000
     58          8.468911   1.000000
     59          9.344009   0.999997
     60          9.354011   0.999995
     61          9.417462   0.999966
     62          9.422016   0.999961
     63          9.539061   0.999097
     64          9.592812   0.996932
     65          9.607589   0.995805
     66          9.648631   0.990506
     67          9.706289   0.973692
     68          9.732118   0.960406
     69         10.479486   0.000208
     70         10.497798   0.000127
     71         10.688794   0.000000
     72         10.746454   0.000000
     73         11.377927   0.000000
     74         11.386839   0.000000
     75         11.511289   0.000000
     76         11.534414   0.000000
     77         12.979502   0.000000
     78         12.987592   0.000000
     79         13.555203   0.000000
     80         13.556235   0.000000
     81         14.976422   0.000000
     82         14.976703   0.000000
     83         15.346942   0.000000
     84         15.347785   0.000000
     85         15.940349   0.000000
     86         15.942326   0.000000
     87         16.113390   0.000000
     88         16.121439   0.000000

  0.1754386E-01  0.1754386E-01  0.0000000E+00  0.5555556E-02
      1        -11.941354   1.000000
      2        -11.940906   1.000000
      3        -11.824254   1.000000
      4        -11.824159   1.000000
      5        -11.765216   1.000000
      6        -11.764991   1.000000
      7        -11.738751   1.000000
      8        -11.738709   1.000000
      9        -11.705739   1.000000
     10        -11.705725   1.000000
     11        -11.689267   1.000000
     12        -11.689229   1.000000
     13        -10.923525   1.000000
     14        -10.923030   1.000000
     15        -10.831509   1.000000
     16        -10.831422   1.000000
     17        -10.830378   1.000000
     18        -10.830279   1.000000
     19        -10.720346   1.000000
     20        -10.720201   1.000000
     21        -10.705908   1.000000
     22        -10.705797   1.000000
     23        -10.704717   1.000000
     24        -10.704438   1.000000
     25        -10.694868   1.000000
     26        -10.694835   1.000000
     27        -10.653462   1.000000
     28        -10.653386   1.000000
     29        -10.623107   1.000000
     30        -10.623053   1.000000
     31         -1.513716   1.000000
     32         -1.512580   1.000000
     33          3.162544   1.000000
     34          3.171628   1.000000
     35          4.688106   1.000000
     36          4.688941   1.000000
     37          5.771479   1.000000
     38          5.773902   1.000000
     39          5.961765   1.000000
     40          5.963546   1.000000
     41          6.537755   1.000000
     42          6.549999   1.000000
     43          6.932459   1.000000
     44          6.940382   1.000000
     45          7.157544   1.000000
     46          7.159257   1.000000
     47          7.430686   1.000000
     48          7.432207   1.000000
     49          7.495760   1.000000
     50          7.496990   1.000000
     51          7.838004   1.000000
     52          7.847744   1.000000
     53          8.065300   1.000000
     54          8.098060   1.000000
     55          8.266249   1.000000
     56          8.271016   1.000000
     57          8.416038   1.000000
     58          8.464552   1.000000
     59          9.335872   0.999997
     60          9.347190   0.999996
     61          9.411699   0.999971
     62          9.419441   0.999964
     63          9.540684   0.999062
     64          9.592318   0.996965
     65          9.602557   0.996225
     66          9.640080   0.991941
     67          9.696174   0.977762
     68          9.724786   0.964640
     69         10.478496   0.000214
     70         10.494626   0.000138
     71         10.650924   0.000001
     72         10.708543   0.000000
     73         11.360542   0.000000
     74         11.369455   0.000000
     75         11.490117   0.000000
     76         11.512475   0.000000
     77         12.961738   0.000000
     78         12.969831   0.000000
     79         13.564510   0.000000
     80         13.565418   0.000000
     81         15.025560   0.000000
     82         15.025881   0.000000
     83         15.392435   0.000000
     84         15.393030   0.000000
     85         15.996036   0.000000
     86         15.997316   0.000000
     87         16.415824   0.000000
     88         16.423449   0.000000

 -0.2428613E-16 -0.2428613E-16  0.0000000E+00  0.5555556E-02
      1        -11.941383   1.000000
      2        -11.940935   1.000000
      3        -11.824361   1.000000
      4        -11.824265   1.000000
      5        -11.765223   1.000000
      6        -11.764999   1.000000
      7        -11.738373   1.000000
      8        -11.738330   1.000000
      9        -11.705858   1.000000
     10        -11.705844   1.000000
     11        -11.689294   1.000000
     12        -11.689256   1.000000
     13        -10.923535   1.000000
     14        -10.923041   1.000000
     15        -10.831627   1.000000
     16        -10.831544   1.000000
     17        -10.830418   1.000000
     18        -10.830324   1.000000
     19        -10.720590   1.000000
     20        -10.720444   1.000000
     21        -10.705557   1.000000
     22        -10.705188   1.000000
     23        -10.701740   1.000000
     24        -10.701708   1.000000
     25        -10.698085   1.000000
     26        -10.698030   1.000000
     27        -10.653584   1.000000
     28        -10.653507   1.000000
     29        -10.623088   1.000000
     30        -10.623034   1.000000
     31         -1.520693   1.000000
     32         -1.519557   1.000000
     33          3.166755   1.000000
     34          3.175876   1.000000
     35          4.752467   1.000000
     36          4.753605   1.000000
     37          5.752031   1.000000
     38          5.754833   1.000000
     39          5.960060   1.000000
     40          5.962480   1.000000
     41          6.536196   1.000000
     42          6.548489   1.000000
     43          6.933899   1.000000
     44          6.942330   1.000000
     45          7.135926   1.000000
     46          7.137777   1.000000
     47          7.416347   1.000000
     48          7.417925   1.000000
     49          7.491883   1.000000
     50          7.492746   1.000000
     51          7.837554   1.000000
     52          7.847168   1.000000
     53          8.063980   1.000000
     54          8.096484   1.000000
     55          8.268623   1.000000
     56          8.273643   1.000000
     57          8.414517   1.000000
     58          8.463176   1.000000
     59          9.332717   0.999998
     60          9.344487   0.999997
     61          9.409706   0.999973
     62          9.418541   0.999964
     63          9.541095   0.999052
     64          9.591252   0.997034
     65          9.601352   0.996320
     66          9.637684   0.992307
     67          9.692904   0.978959
     68          9.722504   0.965879
     69         10.477911   0.000217
     70         10.492959   0.000145
     71         10.638567   0.000002
     72         10.695796   0.000000
     73         11.355053   0.000000
     74         11.363985   0.000000
     75         11.483472   0.000000
     76         11.505569   0.000000
     77         12.955930   0.000000
     78         12.964023   0.000000
     79         13.567487   0.000000
     80         13.568355   0.000000
     81         15.040461   0.000000
     82         15.040803   0.000000
     83         15.408825   0.000000
     84         15.409354   0.000000
     85         16.018011   0.000000
     86         16.019004   0.000000
     87         16.613913   0.000000
     88         16.680087   0.000000

  0.0000000E+00  0.0000000E+00  0.0000000E+00  0.5555556E-02
      1        -11.941383   1.000000
      2        -11.940935   1.000000
      3        -11.824361   1.000000
      4        -11.824265   1.000000
      5        -11.765223   1.000000
      6        -11.764999   1.000000
      7        -11.738373   1.000000
      8        -11.738330   1.000000
      9        -11.705858   1.000000
     10        -11.705844   1.000000
     11        -11.689294   1.000000
     12        -11.689256   1.000000
     13        -10.923535   1.000000
     14        -10.923041   1.000000
     15        -10.831627   1.000000
     16        -10.831544   1.000000
     17        -10.830418   1.000000
     18        -10.830324   1.000000
     19        -10.720590   1.000000
     20        -10.720444   1.000000
     21        -10.705557   1.000000
     22        -10.705188   1.000000
     23        -10.701740   1.000000
     24        -10.701708   1.000000
     25        -10.698085   1.000000
     26        -10.698030   1.000000
     27        -10.653584   1.000000
     28        -10.653507   1.000000
     29        -10.623088   1.000000
     30        -10.623034   1.000000
     31         -1.520693   1.000000
     32         -1.519557   1.000000
     33          3.166755   1.000000
     34          3.175876   1.000000
     35          4.752467   1.000000
     36          4.753605   1.000000
     37          5.752031   1.000000
     38          5.754833   1.000000
     39          5.960060   1.000000
     40          5.962480   1.000000
     41          6.536196   1.000000
     42          6.548489   1.000000
     43          6.933899   1.000000
     44          6.942330   1.000000
     45          7.135926   1.000000
     46          7.137777   1.000000
     47          7.416347   1.000000
     48          7.417925   1.000000
     49          7.491883   1.000000
     50          7.492746   1.000000
     51          7.837554   1.000000
     52          7.847168   1.000000
     53          8.063980   1.000000
     54          8.096484   1.000000
     55          8.268623   1.000000
     56          8.273643   1.000000
     57          8.414517   1.000000
     58          8.463176   1.000000
     59          9.332717   0.999998
     60          9.344487   0.999997
     61          9.409706   0.999973
     62          9.418541   0.999964
     63          9.541095   0.999052
     64          9.591252   0.997034
     65          9.601352   0.996320
     66          9.637684   0.992307
     67          9.692904   0.978959
     68          9.722504   0.965879
     69         10.477911   0.000217
     70         10.492959   0.000145
     71         10.638567   0.000002
     72         10.695796   0.000000
     73         11.355053   0.000000
     74         11.363985   0.000000
     75         11.483472   0.000000
     76         11.505569   0.000000
     77         12.955930   0.000000
     78         12.964023   0.000000
     79         13.567487   0.000000
     80         13.568355   0.000000
     81         15.040461   0.000000
     82         15.040803   0.000000
     83         15.408825   0.000000
     84         15.409354   0.000000
     85         16.018013   0.000000
     86         16.019010   0.000000
     87         16.610455   0.000000
     88         16.617881   0.000000

  0.0000000E+00  0.0000000E+00  0.2631579E-01  0.5555556E-02
      1        -11.941399   1.000000
      2        -11.940952   1.000000
      3        -11.824323   1.000000
      4        -11.824227   1.000000
      5        -11.765283   1.000000
      6        -11.765058   1.000000
      7        -11.738430   1.000000
      8        -11.738388   1.000000
      9        -11.705823   1.000000
     10        -11.705809   1.000000
     11        -11.689389   1.000000
     12        -11.689351   1.000000
     13        -10.923620   1.000000
     14        -10.923125   1.000000
     15        -10.831602   1.000000
     16        -10.831519   1.000000
     17        -10.830395   1.000000
     18        -10.830301   1.000000
     19        -10.720720   1.000000
     20        -10.720573   1.000000
     21        -10.705639   1.000000
     22        -10.705269   1.000000
     23        -10.701788   1.000000
     24        -10.701760   1.000000
     25        -10.697997   1.000000
     26        -10.697941   1.000000
     27        -10.653737   1.000000
     28        -10.653660   1.000000
     29        -10.623011   1.000000
     30        -10.622957   1.000000
     31         -1.514575   1.000000
     32         -1.513440   1.000000
     33          3.162386   1.000000
     34          3.171476   1.000000
     35          4.747538   1.000000
     36          4.748590   1.000000
     37          5.758779   1.000000
     38          5.761567   1.000000
     39          5.966844   1.000000
     40          5.969286   1.000000
     41          6.546178   1.000000
     42          6.558354   1.000000
     43          6.872030   1.000000
     44          6.879434   1.000000
     45          7.156013   1.000000
     46          7.157454   1.000000
     47          7.418524   1.000000
     48          7.419882   1.000000
     49          7.514030   1.000000
     50          7.514935   1.000000
     51          7.837945   1.000000
     52          7.848092   1.000000
     53          8.064013   1.000000
     54          8.096527   1.000000
     55          8.270007   1.000000
     56          8.274917   1.000000
     57          8.415206   1.000000
     58          8.463649   1.000000
     59          9.332634   0.999998
     60          9.344287   0.999997
     61          9.409376   0.999973
     62          9.418139   0.999965
     63          9.540761   0.999060
     64          9.590960   0.997052
     65          9.600916   0.996353
     66          9.637355   0.992356
     67          9.692455   0.979119
     68          9.722225   0.966028
     69         10.477807   0.000218
     70         10.492830   0.000145
     71         10.639100   0.000002
     72         10.696184   0.000000
     73         11.345888   0.000000
     74         11.354835   0.000000
     75         11.474376   0.000000
     76         11.496431   0.000000
     77         12.988312   0.000000
     78         12.996197   0.000000
     79         13.544078   0.000000
     80         13.545205   0.000000
     81         15.019911   0.000000
     82         15.020273   0.000000
     83         15.385966   0.000000
     84         15.386607   0.000000
     85         15.861516   0.000000
     86         15.864047   0.000000
     87         16.548612   0.000000
     88         16.557348   0.000000

  0.0000000E+00  0.0000000E+00  0.5263158E-01  0.5555556E-02
      1        -11.941314   1.000000
      2        -11.940866   1.000000
      3        -11.824171   1.000000
      4        -11.824075   1.000000
      5        -11.765390   1.000000
      6        -11.765165   1.000000
      7        -11.738603   1.000000
      8        -11.738560   1.000000
      9        -11.705438   1.000000
     10        -11.705424   1.000000
     11        -11.689676   1.000000
     12        -11.689638   1.000000
     13        -10.923640   1.000000
     14        -10.923146   1.000000
     15        -10.831455   1.000000
     16        -10.831374   1.000000
     17        -10.830273   1.000000
     18        -10.830180   1.000000
     19        -10.721107   1.000000
     20        -10.720961   1.000000
     21        -10.705845   1.000000
     22        -10.705471   1.000000
     23        -10.701486   1.000000
     24        -10.701469   1.000000
     25        -10.697741   1.000000
     26        -10.697682   1.000000
     27        -10.653701   1.000000
     28        -10.653625   1.000000
     29        -10.622788   1.000000
     30        -10.622734   1.000000
     31         -1.496175   1.000000
     32         -1.495043   1.000000
     33          3.148952   1.000000
     34          3.157946   1.000000
     35          4.733143   1.000000
     36          4.733947   1.000000
     37          5.778982   1.000000
     38          5.781726   1.000000
     39          5.987155   1.000000
     40          5.989664   1.000000
     41          6.575695   1.000000
     42          6.587528   1.000000
     43          6.734702   1.000000
     44          6.741142   1.000000
     45          7.182966   1.000000
     46          7.184519   1.000000
     47          7.422577   1.000000
     48          7.423773   1.000000
     49          7.568105   1.000000
     50          7.568803   1.000000
     51          7.839204   1.000000
     52          7.851042   1.000000
     53          8.064111   1.000000
     54          8.096653   1.000000
     55          8.274144   1.000000
     56          8.278733   1.000000
     57          8.417325   1.000000
     58          8.465116   1.000000
     59          9.332400   0.999998
     60          9.343711   0.999997
     61          9.408449   0.999974
     62          9.416991   0.999966
     63          9.539792   0.999081
     64          9.590129   0.997105
     65          9.599664   0.996449
     66          9.636414   0.992495
     67          9.691156   0.979576
     68          9.721457   0.966436
     69         10.477442   0.000220
     70         10.492334   0.000147
     71         10.640051   0.000002
     72         10.696643   0.000000
     73         11.318331   0.000000
     74         11.327325   0.000000
     75         11.447008   0.000000
     76         11.468928   0.000000
     77         13.080757   0.000000
     78         13.087844   0.000000
     79         13.480293   0.000000
     80         13.482408   0.000000
     81         14.960188   0.000000
     82         14.960742   0.000000
     83         15.319322   0.000000
     84         15.320326   0.000000
     85         15.544759   0.000000
     86         15.549097   0.000000
     87         16.396768   0.000000
     88         16.421591   0.000000

  0.0000000E+00  0.0000000E+00  0.7894737E-01  0.5555556E-02
      1        -11.941224   1.000000
      2        -11.940777   1.000000
      3        -11.823976   1.000000
      4        -11.823880   1.000000
      5        -11.765608   1.000000
      6        -11.765383   1.000000
      7        -11.738981   1.000000
      8        -11.738939   1.000000
      9        -11.704835   1.000000
     10        -11.704822   1.000000
     11        -11.690231   1.000000
     12        -11.690192   1.000000
     13        -10.923743   1.000000
     14        -10.923248   1.000000
     15        -10.831343   1.000000
     16        -10.831260   1.000000
     17        -10.830156   1.000000
     18        -10.830060   1.000000
     19        -10.721912   1.000000
     20        -10.721767   1.000000
     21        -10.706296   1.000000
     22        -10.705921   1.000000
     23        -10.700988   1.000000
     24        -10.700982   1.000000
     25        -10.697483   1.000000
     26        -10.697422   1.000000
     27        -10.653673   1.000000
     28        -10.653597   1.000000
     29        -10.622494   1.000000
     30        -10.622440   1.000000
     31         -1.465519   1.000000
     32         -1.464393   1.000000
     33          3.125412   1.000000
     34          3.134241   1.000000
     35          4.710360   1.000000
     36          4.710790   1.000000
     37          5.812492   1.000000
     38          5.815162   1.000000
     39          6.020840   1.000000
     40          6.023464   1.000000
     41          6.564672   1.000000
     42          6.570631   1.000000
     43          6.623676   1.000000
     44          6.635008   1.000000
     45          7.203538   1.000000
     46          7.205302   1.000000
     47          7.427234   1.000000
     48          7.428725   1.000000
     49          7.630180   1.000000
     50          7.631267   1.000000
     51          7.841607   1.000000
     52          7.856553   1.000000
     53          8.064252   1.000000
     54          8.096837   1.000000
     55          8.280964   1.000000
     56          8.285057   1.000000
     57          8.421024   1.000000
     58          8.467704   1.000000
     59          9.331950   0.999998
     60          9.342693   0.999997
     61          9.406941   0.999975
     62          9.415098   0.999968
     63          9.538123   0.999118
     64          9.588715   0.997192
     65          9.597562   0.996604
     66          9.634828   0.992724
     67          9.688963   0.980328
     68          9.720255   0.967065
     69         10.476606   0.000225
     70         10.491097   0.000152
     71         10.639483   0.000002
     72         10.695093   0.000000
     73         11.272191   0.000000
     74         11.281286   0.000000
     75         11.401132   0.000000
     76         11.422798   0.000000
     77         13.191857   0.000000
     78         13.196075   0.000000
     79         13.421534   0.000000
     80         13.426933   0.000000
     81         14.866388   0.000000
     82         14.867389   0.000000
     83         15.186418   0.000000
     84         15.190851   0.000000
     85         15.219207   0.000000
     86         15.220375   0.000000
     87         16.181249   0.000000
     88         16.189613   0.000000

  0.0000000E+00  0.0000000E+00  0.1052632E+00  0.5555556E-02
      1        -11.941028   1.000000
      2        -11.940582   1.000000
      3        -11.823534   1.000000
      4        -11.823437   1.000000
      5        -11.765835   1.000000
      6        -11.765609   1.000000
      7        -11.739367   1.000000
      8        -11.739325   1.000000
      9        -11.703956   1.000000
     10        -11.703942   1.000000
     11        -11.690877   1.000000
     12        -11.690838   1.000000
     13        -10.923791   1.000000
     14        -10.923297   1.000000
     15        -10.830921   1.000000
     16        -10.830837   1.000000
     17        -10.829759   1.000000
     18        -10.829662   1.000000
     19        -10.722767   1.000000
     20        -10.722622   1.000000
     21        -10.706733   1.000000
     22        -10.706359   1.000000
     23        -10.700259   1.000000
     24        -10.700256   1.000000
     25        -10.696922   1.000000
     26        -10.696861   1.000000
     27        -10.653533   1.000000
     28        -10.653457   1.000000
     29        -10.622013   1.000000
     30        -10.621960   1.000000
     31         -1.422666   1.000000
     32         -1.421548   1.000000
     33          3.090071   1.000000
     34          3.098658   1.000000
     35          4.680687   1.000000
     36          4.680757   1.000000
     37          5.859069   1.000000
     38          5.861636   1.000000
     39          6.067537   1.000000
     40          6.070336   1.000000
     41          6.380809   1.000000
     42          6.386488   1.000000
     43          6.688165   1.000000
     44          6.698810   1.000000
     45          7.221477   1.000000
     46          7.223302   1.000000
     47          7.432640   1.000000
     48          7.434902   1.000000
     49          7.684356   1.000000
     50          7.688697   1.000000
     51          7.845778   1.000000
     52          7.865516   1.000000
     53          8.064436   1.000000
     54          8.097072   1.000000
     55          8.290341   1.000000
     56          8.293827   1.000000
     57          8.426597   1.000000
     58          8.471671   1.000000
     59          9.331304   0.999998
     60          9.341285   0.999997
     61          9.405035   0.999976
     62          9.412650   0.999970
     63          9.535836   0.999165
     64          9.586797   0.997307
     65          9.594781   0.996800
     66          9.632733   0.993018
     67          9.685986   0.981312
     68          9.718838   0.967795
     69         10.475126   0.000234
     70         10.488731   0.000162
     71         10.635008   0.000002
     72         10.688981   0.000000
     73         11.207340   0.000000
     74         11.216613   0.000000
     75         11.336532   0.000000
     76         11.357787   0.000000
     77         13.145334   0.000000
     78         13.147894   0.000000
     79         13.549051   0.000000
     80         13.556861   0.000000
     81         14.744572   0.000000
     82         14.746340   0.000000
     83         14.829951   0.000000
     84         14.836704   0.000000
     85         15.080601   0.000000
     86         15.082888   0.000000
     87         15.949933   0.000000
     88         15.959500   0.000000

  0.0000000E+00  0.0000000E+00  0.1315789E+00  0.5555556E-02
      1        -11.940929   1.000000
      2        -11.940482   1.000000
      3        -11.823147   1.000000
      4        -11.823050   1.000000
      5        -11.766254   1.000000
      6        -11.766028   1.000000
      7        -11.740011   1.000000
      8        -11.739970   1.000000
      9        -11.702953   1.000000
     10        -11.702940   1.000000
     11        -11.691849   1.000000
     12        -11.691811   1.000000
     13        -10.924056   1.000000
     14        -10.923562   1.000000
     15        -10.830699   1.000000
     16        -10.830611   1.000000
     17        -10.829536   1.000000
     18        -10.829436   1.000000
     19        -10.724108   1.000000
     20        -10.723965   1.000000
     21        -10.707489   1.000000
     22        -10.707118   1.000000
     23        -10.699546   1.000000
     24        -10.699536   1.000000
     25        -10.696446   1.000000
     26        -10.696389   1.000000
     27        -10.653513   1.000000
     28        -10.653438   1.000000
     29        -10.621729   1.000000
     30        -10.621675   1.000000
     31         -1.367739   1.000000
     32         -1.366631   1.000000
     33          3.040676   1.000000
     34          3.048937   1.000000
     35          4.645453   1.000000
     36          4.645998   1.000000
     37          5.918080   1.000000
     38          5.920546   1.000000
     39          6.123595   1.000000
     40          6.126595   1.000000
     41          6.198427   1.000000
     42          6.203331   1.000000
     43          6.767381   1.000000
     44          6.777215   1.000000
     45          7.239313   1.000000
     46          7.241097   1.000000
     47          7.438795   1.000000
     48          7.442193   1.000000
     49          7.725487   1.000000
     50          7.734711   1.000000
     51          7.852777   1.000000
     52          7.878673   1.000000
     53          8.064626   1.000000
     54          8.097308   1.000000
     55          8.301981   1.000000
     56          8.304861   1.000000
     57          8.434414   1.000000
     58          8.477327   1.000000
     59          9.330232   0.999998
     60          9.339312   0.999997
     61          9.402708   0.999978
     62          9.409638   0.999973
     63          9.532785   0.999224
     64          9.584183   0.997457
     65          9.591304   0.997030
     66          9.630052   0.993378
     67          9.682127   0.982524
     68          9.717229   0.968607
     69         10.472416   0.000251
     70         10.484403   0.000183
     71         10.624301   0.000003
     72         10.675834   0.000000
     73         11.123583   0.000000
     74         11.133144   0.000000
     75         11.252892   0.000000
     76         11.273512   0.000000
     77         12.993479   0.000000
     78         12.997672   0.000000
     79         13.815346   0.000000
     80         13.822687   0.000000
     81         14.472051   0.000000
     82         14.478910   0.000000
     83         14.606778   0.000000
     84         14.608585   0.000000
     85         14.922704   0.000000
     86         14.925881   0.000000
     87         15.713635   0.000000
     88         15.722586   0.000000

  0.0000000E+00  0.0000000E+00  0.1578947E+00  0.5555556E-02
      1        -11.940572   1.000000
      2        -11.940126   1.000000
      3        -11.822544   1.000000
      4        -11.822446   1.000000
      5        -11.766570   1.000000
      6        -11.766344   1.000000
      7        -11.740568   1.000000
      8        -11.740527   1.000000
      9        -11.701591   1.000000
     10        -11.701578   1.000000
     11        -11.692768   1.000000
     12        -11.692729   1.000000
     13        -10.924024   1.000000
     14        -10.923530   1.000000
     15        -10.830007   1.000000
     16        -10.829933   1.000000
     17        -10.829006   1.000000
     18        -10.828921   1.000000
     19        -10.725313   1.000000
     20        -10.725170   1.000000
     21        -10.708128   1.000000
     22        -10.707761   1.000000
     23        -10.698507   1.000000
     24        -10.698488   1.000000
     25        -10.695515   1.000000
     26        -10.695466   1.000000
     27        -10.653159   1.000000
     28        -10.653085   1.000000
     29        -10.621047   1.000000
     30        -10.620993   1.000000
     31         -1.300787   1.000000
     32         -1.299693   1.000000
     33          2.974716   1.000000
     34          2.982565   1.000000
     35          4.606848   1.000000
     36          4.607908   1.000000
     37          5.977333   1.000000
     38          5.981597   1.000000
     39          6.021755   1.000000
     40          6.025669   1.000000
     41          6.204358   1.000000
     42          6.207585   1.000000
     43          6.859218   1.000000
     44          6.868131   1.000000
     45          7.257932   1.000000
     46          7.259654   1.000000
     47          7.445557   1.000000
     48          7.450393   1.000000
     49          7.753486   1.000000
     50          7.767502   1.000000
     51          7.863915   1.000000
     52          7.895651   1.000000
     53          8.064796   1.000000
     54          8.097515   1.000000
     55          8.315484   1.000000
     56          8.317923   1.000000
     57          8.445044   1.000000
     58          8.485171   1.000000
     59          9.328744   0.999998
     60          9.336920   0.999997
     61          9.400198   0.999980
     62          9.406372   0.999975
     63          9.529134   0.999290
     64          9.580891   0.997634
     65          9.587475   0.997267
     66          9.627001   0.993768
     67          9.677594   0.983862
     68          9.715658   0.969384
     69         10.468070   0.000282
     70         10.477380   0.000220
     71         10.605671   0.000005
     72         10.653764   0.000001
     73         11.021745   0.000000
     74         11.031754   0.000000
     75         11.150833   0.000000
     76         11.170496   0.000000
     77         12.818008   0.000000
     78         12.824433   0.000000
     79         14.125290   0.000000
     80         14.133237   0.000000
     81         14.142115   0.000000
     82         14.148927   0.000000
     83         14.452731   0.000000
     84         14.455376   0.000000
     85         14.750028   0.000000
     86         14.754171   0.000000
     87         15.488377   0.000000
     88         15.497734   0.000000

  0.0000000E+00  0.0000000E+00  0.1842105E+00  0.5555556E-02
      1        -11.940336   1.000000
      2        -11.939890   1.000000
      3        -11.821975   1.000000
      4        -11.821877   1.000000
      5        -11.766966   1.000000
      6        -11.766739   1.000000
      7        -11.741198   1.000000
      8        -11.741158   1.000000
      9        -11.700243   1.000000
     10        -11.700230   1.000000
     11        -11.693848   1.000000
     12        -11.693810   1.000000
     13        -10.924218   1.000000
     14        -10.923725   1.000000
     15        -10.829476   1.000000
     16        -10.829410   1.000000
     17        -10.828556   1.000000
     18        -10.828479   1.000000
     19        -10.726664   1.000000
     20        -10.726522   1.000000
     21        -10.708878   1.000000
     22        -10.708515   1.000000
     23        -10.697607   1.000000
     24        -10.697579   1.000000
     25        -10.694478   1.000000
     26        -10.694441   1.000000
     27        -10.652989   1.000000
     28        -10.652915   1.000000
     29        -10.620484   1.000000
     30        -10.620431   1.000000
     31         -1.221951   1.000000
     32         -1.220875   1.000000
     33          2.889684   1.000000
     34          2.897040   1.000000
     35          4.566431   1.000000
     36          4.567991   1.000000
     37          5.837351   1.000000
     38          5.844352   1.000000
     39          6.078653   1.000000
     40          6.080419   1.000000
     41          6.288778   1.000000
     42          6.292483   1.000000
     43          6.961590   1.000000
     44          6.969451   1.000000
     45          7.277387   1.000000
     46          7.279103   1.000000
     47          7.452706   1.000000
     48          7.459251   1.000000
     49          7.771331   1.000000
     50          7.788050   1.000000
     51          7.879284   1.000000
     52          7.914547   1.000000
     53          8.064899   1.000000
     54          8.097631   1.000000
     55          8.330194   1.000000
     56          8.332530   1.000000
     57          8.459027   1.000000
     58          8.495687   1.000000
     59          9.326628   0.999998
     60          9.334107   0.999998
     61          9.397517   0.999981
     62          9.402993   0.999978
     63          9.524878   0.999361
     64          9.576741   0.997842
     65          9.583483   0.997495
     66          9.623625   0.994175
     67          9.672481   0.985264
     68          9.714155   0.970112
     69         10.459942   0.000348
     70         10.465797   0.000299
     71         10.577619   0.000012
     72         10.621132   0.000003
     73         10.902903   0.000000
     74         10.913682   0.000000
     75         11.031173   0.000000
     76         11.049419   0.000000
     77         12.637472   0.000000
     78         12.646690   0.000000
     79         13.788702   0.000000
     80         13.797568   0.000000
     81         14.287711   0.000000
     82         14.291318   0.000000
     83         14.517344   0.000000
     84         14.523412   0.000000
     85         14.568778   0.000000
     86         14.573957   0.000000
     87         15.279257   0.000000
     88         15.288897   0.000000

  0.0000000E+00  0.0000000E+00  0.2105263E+00  0.5555556E-02
      1        -11.940009   1.000000
      2        -11.939563   1.000000
      3        -11.821357   1.000000
      4        -11.821257   1.000000
      5        -11.767395   1.000000
      6        -11.767167   1.000000
      7        -11.741873   1.000000
      8        -11.741833   1.000000
      9        -11.698762   1.000000
     10        -11.698749   1.000000
     11        -11.694954   1.000000
     12        -11.694917   1.000000
     13        -10.924289   1.000000
     14        -10.923796   1.000000
     15        -10.828905   1.000000
     16        -10.828846   1.000000
     17        -10.828066   1.000000
     18        -10.827999   1.000000
     19        -10.728093   1.000000
     20        -10.727952   1.000000
     21        -10.709654   1.000000
     22        -10.709294   1.000000
     23        -10.696720   1.000000
     24        -10.696683   1.000000
     25        -10.693263   1.000000
     26        -10.693238   1.000000
     27        -10.652778   1.000000
     28        -10.652706   1.000000
     29        -10.619702   1.000000
     30        -10.619648   1.000000
     31         -1.131418   1.000000
     32         -1.130364   1.000000
     33          2.783666   1.000000
     34          2.790471   1.000000
     35          4.525638   1.000000
     36          4.527670   1.000000
     37          5.688635   1.000000
     38          5.696187   1.000000
     39          6.174199   1.000000
     40          6.175708   1.000000
     41          6.386015   1.000000
     42          6.390267   1.000000
     43          7.072504   1.000000
     44          7.079082   1.000000
     45          7.297387   1.000000
     46          7.299247   1.000000
     47          7.460072   1.000000
     48          7.468572   1.000000
     49          7.782718   1.000000
     50          7.799985   1.000000
     51          7.896802   1.000000
     52          7.933210   1.000000
     53          8.064906   1.000000
     54          8.097612   1.000000
     55          8.345485   1.000000
     56          8.348084   1.000000
     57          8.476906   1.000000
     58          8.509447   1.000000
     59          9.323749   0.999998
     60          9.330997   0.999998
     61          9.394688   0.999983
     62          9.399744   0.999980
     63          9.520135   0.999432
     64          9.571773   0.998069
     65          9.579453   0.997708
     66          9.620031   0.994583
     67          9.666967   0.986658
     68          9.712734   0.970787
     69         10.440931   0.000564
     70         10.449090   0.000459
     71         10.538287   0.000040
     72         10.576438   0.000012
     73         10.770552   0.000000
     74         10.783054   0.000000
     75         10.896874   0.000000
     76         10.913582   0.000000
     77         12.461792   0.000000
     78         12.474423   0.000000
     79         13.464262   0.000000
     80         13.474026   0.000000
     81         14.123712   0.000000
     82         14.127956   0.000000
     83         14.384389   0.000000
     84         14.390648   0.000000
     85         14.924027   0.000000
     86         14.929678   0.000000
     87         15.091378   0.000000
     88         15.100981   0.000000

  0.0000000E+00  0.0000000E+00  0.2368421E+00  0.5555556E-02
      1        -11.939612   1.000000
      2        -11.939167   1.000000
      3        -11.820695   1.000000
      4        -11.820594   1.000000
      5        -11.767829   1.000000
      6        -11.767601   1.000000
      7        -11.742576   1.000000
      8        -11.742537   1.000000
      9        -11.697127   1.000000
     10        -11.697113   1.000000
     11        -11.696099   1.000000
     12        -11.696062   1.000000
     13        -10.924267   1.000000
     14        -10.923775   1.000000
     15        -10.828294   1.000000
     16        -10.828242   1.000000
     17        -10.827526   1.000000
     18        -10.827471   1.000000
     19        -10.729568   1.000000
     20        -10.729427   1.000000
     21        -10.710434   1.000000
     22        -10.710077   1.000000
     23        -10.695863   1.000000
     24        -10.695817   1.000000
     25        -10.691801   1.000000
     26        -10.691785   1.000000
     27        -10.652407   1.000000
     28        -10.652337   1.000000
     29        -10.618901   1.000000
     30        -10.618845   1.000000
     31         -1.029448   1.000000
     32         -1.028421   1.000000
     33          2.655880   1.000000
     34          2.662106   1.000000
     35          4.485601   1.000000
     36          4.488066   1.000000
     37          5.561507   1.000000
     38          5.569761   1.000000
     39          6.281501   1.000000
     40          6.282732   1.000000
     41          6.494743   1.000000
     42          6.499687   1.000000
     43          7.189766   1.000000
     44          7.194366   1.000000
     45          7.317576   1.000000
     46          7.320086   1.000000
     47          7.467572   1.000000
     48          7.478228   1.000000
     49          7.790444   1.000000
     50          7.807181   1.000000
     51          7.914144   1.000000
     52          7.950388   1.000000
     53          8.064779   1.000000
     54          8.097398   1.000000
     55          8.360780   1.000000
     56          8.363836   1.000000
     57          8.498901   1.000000
     58          8.526850   1.000000
     59          9.320051   0.999998
     60          9.327659   0.999998
     61          9.391686   0.999984
     62          9.396772   0.999982
     63          9.515021   0.999500
     64          9.566198   0.998298
     65          9.575315   0.997910
     66          9.616274   0.994982
     67          9.661215   0.987989
     68          9.711311   0.971451
     69         10.400817   0.001475
     70         10.419420   0.000953
     71         10.481542   0.000197
     72         10.515823   0.000076
     73         10.631814   0.000002
     74         10.649428   0.000001
     75         10.753227   0.000000
     76         10.774536   0.000000
     77         12.298011   0.000000
     78         12.314654   0.000000
     79         13.153503   0.000000
     80         13.164196   0.000000
     81         13.959990   0.000000
     82         13.964915   0.000000
     83         14.201702   0.000000
     84         14.209096   0.000000
     85         14.919792   0.000000
     86         14.929660   0.000000
     87         14.979492   0.000000
     88         14.986857   0.000000

  0.0000000E+00  0.0000000E+00  0.2631579E+00  0.5555556E-02
      1        -11.939264   1.000000
      2        -11.938819   1.000000
      3        -11.820025   1.000000
      4        -11.819924   1.000000
      5        -11.768294   1.000000
      6        -11.768064   1.000000
      7        -11.743291   1.000000
      8        -11.743253   1.000000
      9        -11.697278   1.000000
     10        -11.697240   1.000000
     11        -11.695543   1.000000
     12        -11.695531   1.000000
     13        -10.924330   1.000000
     14        -10.923837   1.000000
     15        -10.827709   1.000000
     16        -10.827655   1.000000
     17        -10.826992   1.000000
     18        -10.826941   1.000000
     19        -10.731054   1.000000
     20        -10.730914   1.000000
     21        -10.711207   1.000000
     22        -10.710853   1.000000
     23        -10.695100   1.000000
     24        -10.695049   1.000000
     25        -10.690401   1.000000
     26        -10.690388   1.000000
     27        -10.652131   1.000000
     28        -10.652062   1.000000
     29        -10.618105   1.000000
     30        -10.618048   1.000000
     31         -0.916313   1.000000
     32         -0.915321   1.000000
     33          2.507024   1.000000
     34          2.512685   1.000000
     35          4.447262   1.000000
     36          4.450118   1.000000
     37          5.457884   1.000000
     38          5.466902   1.000000
     39          6.399240   1.000000
     40          6.400319   1.000000
     41          6.614034   1.000000
     42          6.619861   1.000000
     43          7.305777   1.000000
     44          7.308912   1.000000
     45          7.339548   1.000000
     46          7.348069   1.000000
     47          7.475376   1.000000
     48          7.488227   1.000000
     49          7.796299   1.000000
     50          7.812141   1.000000
     51          7.930245   1.000000
     52          7.965724   1.000000
     53          8.064481   1.000000
     54          8.096917   1.000000
     55          8.375659   1.000000
     56          8.379123   1.000000
     57          8.524759   1.000000
     58          8.547966   1.000000
     59          9.315627   0.999999
     60          9.324046   0.999998
     61          9.388513   0.999986
     62          9.394028   0.999983
     63          9.509650   0.999563
     64          9.560265   0.998514
     65          9.570937   0.998105
     66          9.612334   0.995372
     67          9.655322   0.989232
     68          9.709677   0.972196
     69         10.321584   0.007917
     70         10.349033   0.004569
     71         10.400319   0.001492
     72         10.432342   0.000697
     73         10.490600   0.000154
     74         10.522836   0.000063
     75         10.622867   0.000003
     76         10.666107   0.000001
     77         12.151121   0.000000
     78         12.172245   0.000000
     79         12.857548   0.000000
     80         12.869222   0.000000
     81         13.800735   0.000000
     82         13.806299   0.000000
     83         14.024326   0.000000
     84         14.032904   0.000000
     85         14.773447   0.000000
     86         14.783297   0.000000
     87         14.829366   0.000000
     88         14.837196   0.000000

  0.0000000E+00  0.0000000E+00  0.2894737E+00  0.5555556E-02
      1        -11.938928   1.000000
      2        -11.938483   1.000000
      3        -11.819359   1.000000
      4        -11.819257   1.000000
      5        -11.768761   1.000000
      6        -11.768531   1.000000
      7        -11.744002   1.000000
      8        -11.743964   1.000000
      9        -11.698429   1.000000
     10        -11.698391   1.000000
     11        -11.694007   1.000000
     12        -11.693994   1.000000
     13        -10.924395   1.000000
     14        -10.923903   1.000000
     15        -10.827149   1.000000
     16        -10.827083   1.000000
     17        -10.826465   1.000000
     18        -10.826409   1.000000
     19        -10.732513   1.000000
     20        -10.732374   1.000000
     21        -10.711952   1.000000
     22        -10.711600   1.000000
     23        -10.694395   1.000000
     24        -10.694341   1.000000
     25        -10.689019   1.000000
     26        -10.689002   1.000000
     27        -10.651837   1.000000
     28        -10.651770   1.000000
     29        -10.617342   1.000000
     30        -10.617284   1.000000
     31         -0.792417   1.000000
     32         -0.791470   1.000000
     33          2.339330   1.000000
     34          2.344478   1.000000
     35          4.411380   1.000000
     36          4.414582   1.000000
     37          5.377257   1.000000
     38          5.387040   1.000000
     39          6.526207   1.000000
     40          6.527491   1.000000
     41          6.742769   1.000000
     42          6.749726   1.000000
     43          7.349187   1.000000
     44          7.352733   1.000000
     45          7.436086   1.000000
     46          7.441479   1.000000
     47          7.486273   1.000000
     48          7.499578   1.000000
     49          7.801587   1.000000
     50          7.816428   1.000000
     51          7.944934   1.000000
     52          7.979288   1.000000
     53          8.064006   1.000000
     54          8.096107   1.000000
     55          8.389876   1.000000
     56          8.393493   1.000000
     57          8.553736   1.000000
     58          8.572403   1.000000
     59          9.310657   0.999999
     60          9.320032   0.999998
     61          9.385153   0.999987
     62          9.391249   0.999984
     63          9.504107   0.999621
     64          9.554164   0.998710
     65          9.566196   0.998298
     66          9.608084   0.995762
     67          9.649225   0.990398
     68          9.707393   0.973212
     69         10.184094   0.074858
     70         10.211442   0.051139
     71         10.308783   0.010111
     72         10.335285   0.006043
     73         10.344516   0.005014
     74         10.369323   0.002977
     75         10.559973   0.000021
     76         10.609731   0.000004
     77         12.024074   0.000000
     78         12.049892   0.000000
     79         12.578239   0.000000
     80         12.590957   0.000000
     81         13.649285   0.000000
     82         13.655425   0.000000
     83         13.855777   0.000000
     84         13.865580   0.000000
     85         14.647707   0.000000
     86         14.657400   0.000000
     87         14.700483   0.000000
     88         14.708610   0.000000

  0.0000000E+00  0.0000000E+00  0.3157895E+00  0.5555556E-02
      1        -11.938712   1.000000
      2        -11.938268   1.000000
      3        -11.818729   1.000000
      4        -11.818626   1.000000
      5        -11.769256   1.000000
      6        -11.769025   1.000000
      7        -11.744727   1.000000
      8        -11.744691   1.000000
      9        -11.699587   1.000000
     10        -11.699549   1.000000
     11        -11.692646   1.000000
     12        -11.692634   1.000000
     13        -10.924646   1.000000
     14        -10.924154   1.000000
     15        -10.826656   1.000000
     16        -10.826580   1.000000
     17        -10.826017   1.000000
     18        -10.825953   1.000000
     19        -10.733997   1.000000
     20        -10.733858   1.000000
     21        -10.712699   1.000000
     22        -10.712348   1.000000
     23        -10.693814   1.000000
     24        -10.693759   1.000000
     25        -10.687872   1.000000
     26        -10.687851   1.000000
     27        -10.651636   1.000000
     28        -10.651571   1.000000
     29        -10.616653   1.000000
     30        -10.616594   1.000000
     31         -0.658348   1.000000
     32         -0.657461   1.000000
     33          2.156197   1.000000
     34          2.160912   1.000000
     35          4.378558   1.000000
     36          4.382060   1.000000
     37          5.317393   1.000000
     38          5.327900   1.000000
     39          6.661021   1.000000
     40          6.662920   1.000000
     41          6.879439   1.000000
     42          6.887850   1.000000
     43          7.366994   1.000000
     44          7.369125   1.000000
     45          7.485200   1.000000
     46          7.504713   1.000000
     47          7.561547   1.000000
     48          7.569635   1.000000
     49          7.807987   1.000000
     50          7.821714   1.000000
     51          7.958342   1.000000
     52          7.991228   1.000000
     53          8.063366   1.000000
     54          8.094884   1.000000
     55          8.403220   1.000000
     56          8.406657   1.000000
     57          8.584654   1.000000
     58          8.599244   1.000000
     59          9.305238   0.999999
     60          9.315391   0.999999
     61          9.381387   0.999989
     62          9.387918   0.999986
     63          9.498329   0.999673
     64          9.547926   0.998885
     65          9.560807   0.998495
     66          9.603104   0.996181
     67          9.642409   0.991570
     68          9.703334   0.974941
     69         10.015082   0.403061
     70         10.040901   0.334324
     71         10.143469   0.124400
     72         10.184273   0.074680
     73         10.236867   0.034863
     74         10.262145   0.023162
     75         10.536913   0.000042
     76         10.583589   0.000010
     77         11.917832   0.000000
     78         11.948240   0.000000
     79         12.317513   0.000000
     80         12.331344   0.000000
     81         13.508419   0.000000
     82         13.515055   0.000000
     83         13.699027   0.000000
     84         13.710083   0.000000
     85         14.541618   0.000000
     86         14.551032   0.000000
     87         14.591853   0.000000
     88         14.600080   0.000000

  0.0000000E+00  0.0000000E+00  0.3421053E+00  0.5555556E-02
      1        -11.938337   1.000000
      2        -11.937893   1.000000
      3        -11.818114   1.000000
      4        -11.818010   1.000000
      5        -11.769626   1.000000
      6        -11.769394   1.000000
      7        -11.745295   1.000000
      8        -11.745259   1.000000
      9        -11.700495   1.000000
     10        -11.700457   1.000000
     11        -11.691236   1.000000
     12        -11.691224   1.000000
     13        -10.924581   1.000000
     14        -10.924090   1.000000
     15        -10.826147   1.000000
     16        -10.826042   1.000000
     17        -10.825434   1.000000
     18        -10.825344   1.000000
     19        -10.735070   1.000000
     20        -10.734932   1.000000
     21        -10.713266   1.000000
     22        -10.712917   1.000000
     23        -10.693172   1.000000
     24        -10.693115   1.000000
     25        -10.686593   1.000000
     26        -10.686566   1.000000
     27        -10.651229   1.000000
     28        -10.651166   1.000000
     29        -10.615888   1.000000
     30        -10.615827   1.000000
     31         -0.514910   1.000000
     32         -0.514105   1.000000
     33          1.961883   1.000000
     34          1.966264   1.000000
     35          4.349326   1.000000
     36          4.353086   1.000000
     37          5.275098   1.000000
     38          5.286262   1.000000
     39          6.801930   1.000000
     40          6.804761   1.000000
     41          7.021899   1.000000
     42          7.032192   1.000000
     43          7.381107   1.000000
     44          7.382668   1.000000
     45          7.493634   1.000000
     46          7.515723   1.000000
     47          7.672330   1.000000
     48          7.679649   1.000000
     49          7.820613   1.000000
     50          7.832717   1.000000
     51          7.970719   1.000000
     52          8.001745   1.000000
     53          8.062709   1.000000
     54          8.093238   1.000000
     55          8.415504   1.000000
     56          8.418504   1.000000
     57          8.616121   1.000000
     58          8.627230   1.000000
     59          9.299253   0.999999
     60          9.309608   0.999999
     61          9.376547   0.999990
     62          9.383026   0.999988
     63          9.491832   0.999724
     64          9.541149   0.999051
     65          9.553814   0.998720
     66          9.595955   0.996719
     67          9.632981   0.992984
     68          9.693800   0.978637
     69          9.839380   0.840609
     70          9.865039   0.792615
     71          9.959646   0.558260
     72         10.002455   0.437957
     73         10.150560   0.114409
     74         10.171771   0.087965
     75         10.526140   0.000057
     76         10.569946   0.000015
     77         11.831738   0.000000
     78         11.866334   0.000000
     79         12.078288   0.000000
     80         12.093299   0.000000
     81         13.380842   0.000000
     82         13.387881   0.000000
     83         13.557009   0.000000
     84         13.569322   0.000000
     85         14.453774   0.000000
     86         14.462821   0.000000
     87         14.502039   0.000000
     88         14.510205   0.000000

  0.0000000E+00  0.0000000E+00  0.3684211E+00  0.5555556E-02
      1        -11.937975   1.000000
      2        -11.937532   1.000000
      3        -11.817380   1.000000
      4        -11.817275   1.000000
      5        -11.769860   1.000000
      6        -11.769627   1.000000
      7        -11.745773   1.000000
      8        -11.745737   1.000000
      9        -11.701318   1.000000
     10        -11.701280   1.000000
     11        -11.689910   1.000000
     12        -11.689898   1.000000
     13        -10.924478   1.000000
     14        -10.923987   1.000000
     15        -10.825393   1.000000
     16        -10.825285   1.000000
     17        -10.824766   1.000000
     18        -10.824673   1.000000
     19        -10.736024   1.000000
     20        -10.735886   1.000000
     21        -10.713590   1.000000
     22        -10.713242   1.000000
     23        -10.692553   1.000000
     24        -10.692495   1.000000
     25        -10.685350   1.000000
     26        -10.685318   1.000000
     27        -10.650758   1.000000
     28        -10.650696   1.000000
     29        -10.615238   1.000000
     30        -10.615176   1.000000
     31         -0.363307   1.000000
     32         -0.362618   1.000000
     33          1.761022   1.000000
     34          1.765184   1.000000
     35          4.324013   1.000000
     36          4.327987   1.000000
     37          5.246776   1.000000
     38          5.258513   1.000000
     39          6.946470   1.000000
     40          6.950508   1.000000
     41          7.166914   1.000000
     42          7.179627   1.000000
     43          7.392461   1.000000
     44          7.393626   1.000000
     45          7.500614   1.000000
     46          7.525130   1.000000
     47          7.748911   1.000000
     48          7.758858   1.000000
     49          7.860056   1.000000
     50          7.868938   1.000000
     51          7.982492   1.000000
     52          8.011298   1.000000
     53          8.062390   1.000000
     54          8.091287   1.000000
     55          8.426379   1.000000
     56          8.428902   1.000000
     57          8.646554   1.000000
     58          8.654810   1.000000
     59          9.291657   0.999999
     60          9.300794   0.999999
     61          9.368547   0.999992
     62          9.373953   0.999991
     63          9.481206   0.999792
     64          9.529378   0.999286
     65          9.540912   0.999056
     66          9.578785   0.997742
     67          9.612241   0.995380
     68          9.661018   0.988033
     69          9.679653   0.983265
     70          9.706834   0.973456
     71          9.790987   0.909740
     72          9.844032   0.832496
     73         10.066534   0.271178
     74         10.083318   0.233326
     75         10.520198   0.000068
     76         10.561996   0.000020
     77         11.764129   0.000000
     78         11.802268   0.000000
     79         11.863275   0.000000
     80         11.879522   0.000000
     81         13.268493   0.000000
     82         13.275835   0.000000
     83         13.431857   0.000000
     84         13.445403   0.000000
     85         14.382730   0.000000
     86         14.391367   0.000000
     87         14.429537   0.000000
     88         14.437528   0.000000

  0.0000000E+00  0.0000000E+00  0.3947368E+00  0.5555556E-02
      1        -11.937729   1.000000
      2        -11.937286   1.000000
      3        -11.816904   1.000000
      4        -11.816798   1.000000
      5        -11.770210   1.000000
      6        -11.769977   1.000000
      7        -11.746275   1.000000
      8        -11.746240   1.000000
      9        -11.702098   1.000000
     10        -11.702060   1.000000
     11        -11.688865   1.000000
     12        -11.688853   1.000000
     13        -10.924485   1.000000
     14        -10.923994   1.000000
     15        -10.825036   1.000000
     16        -10.824914   1.000000
     17        -10.824390   1.000000
     18        -10.824284   1.000000
     19        -10.737011   1.000000
     20        -10.736874   1.000000
     21        -10.714076   1.000000
     22        -10.713729   1.000000
     23        -10.692106   1.000000
     24        -10.692047   1.000000
     25        -10.684456   1.000000
     26        -10.684419   1.000000
     27        -10.650487   1.000000
     28        -10.650428   1.000000
     29        -10.614686   1.000000
     30        -10.614622   1.000000
     31         -0.205590   1.000000
     32         -0.205073   1.000000
     33          1.558758   1.000000
     34          1.562832   1.000000
     35          4.302968   1.000000
     36          4.307116   1.000000
     37          5.228946   1.000000
     38          5.241163   1.000000
     39          7.091020   1.000000
     40          7.096548   1.000000
     41          7.309193   1.000000
     42          7.324842   1.000000
     43          7.401437   1.000000
     44          7.402307   1.000000
     45          7.506869   1.000000
     46          7.533535   1.000000
     47          7.773421   1.000000
     48          7.785756   1.000000
     49          7.933614   1.000000
     50          7.942581   1.000000
     51          7.996590   1.000000
     52          8.022993   1.000000
     53          8.063701   1.000000
     54          8.089827   1.000000
     55          8.435458   1.000000
     56          8.437755   1.000000
     57          8.674325   1.000000
     58          8.680344   1.000000
     59          9.275563   1.000000
     60          9.280724   1.000000
     61          9.348794   0.999996
     62          9.354786   0.999995
     63          9.431877   0.999947
     64          9.484263   0.999774
     65          9.499673   0.999662
     66          9.536800   0.999145
     67          9.548603   0.998867
     68          9.574823   0.997932
     69          9.590283   0.997095
     70          9.621519   0.994417
     71          9.692935   0.978948
     72          9.766284   0.934966
     73          9.989204   0.475104
     74         10.001687   0.440100
     75         10.516550   0.000075
     76         10.556985   0.000023
     77         11.676536   0.000000
     78         11.693790   0.000000
     79         11.712677   0.000000
     80         11.753673   0.000000
     81         13.173511   0.000000
     82         13.181057   0.000000
     83         13.325950   0.000000
     84         13.340652   0.000000
     85         14.326640   0.000000
     86         14.334893   0.000000
     87         14.372436   0.000000
     88         14.380226   0.000000

  0.0000000E+00  0.0000000E+00  0.4210526E+00  0.5555556E-02
      1        -11.937537   1.000000
      2        -11.937094   1.000000
      3        -11.816512   1.000000
      4        -11.816405   1.000000
      5        -11.770487   1.000000
      6        -11.770252   1.000000
      7        -11.746671   1.000000
      8        -11.746637   1.000000
      9        -11.702728   1.000000
     10        -11.702690   1.000000
     11        -11.688010   1.000000
     12        -11.687998   1.000000
     13        -10.924503   1.000000
     14        -10.924012   1.000000
     15        -10.824745   1.000000
     16        -10.824614   1.000000
     17        -10.824077   1.000000
     18        -10.823961   1.000000
     19        -10.737798   1.000000
     20        -10.737661   1.000000
     21        -10.714447   1.000000
     22        -10.714100   1.000000
     23        -10.691762   1.000000
     24        -10.691703   1.000000
     25        -10.683724   1.000000
     26        -10.683683   1.000000
     27        -10.650239   1.000000
     28        -10.650182   1.000000
     29        -10.614288   1.000000
     30        -10.614223   1.000000
     31         -0.045623   1.000000
     32         -0.045371   1.000000
     33          1.361483   1.000000
     34          1.365635   1.000000
     35          4.286344   1.000000
     36          4.290625   1.000000
     37          5.218506   1.000000
     38          5.231103   1.000000
     39          7.230252   1.000000
     40          7.237597   1.000000
     41          7.406375   1.000000
     42          7.407235   1.000000
     43          7.442093   1.000000
     44          7.460419   1.000000
     45          7.512440   1.000000
     46          7.540753   1.000000
     47          7.776950   1.000000
     48          7.791822   1.000000
     49          7.980547   1.000000
     50          7.993658   1.000000
     51          8.030014   1.000000
     52          8.048741   1.000000
     53          8.078762   1.000000
     54          8.095389   1.000000
     55          8.442498   1.000000
     56          8.444941   1.000000
     57          8.697868   1.000000
     58          8.702243   1.000000
     59          9.210953   1.000000
     60          9.225017   1.000000
     61          9.302868   0.999999
     62          9.313255   0.999999
     63          9.345938   0.999996
     64          9.379248   0.999989
     65          9.450750   0.999910
     66          9.460996   0.999880
     67          9.504841   0.999614
     68          9.539428   0.999089
     69          9.565812   0.998313
     70          9.609548   0.995631
     71          9.666841   0.986689
     72          9.747659   0.950070
     73          9.923212   0.656962
     74          9.931528   0.635096
     75         10.514236   0.000080
     76         10.553759   0.000025
     77         11.523089   0.000000
     78         11.541686   0.000000
     79         11.674745   0.000000
     80         11.718053   0.000000
     81         13.097575   0.000000
     82         13.105239   0.000000
     83         13.241217   0.000000
     84         13.256934   0.000000
     85         14.284386   0.000000
     86         14.292314   0.000000
     87         14.329507   0.000000
     88         14.337103   0.000000

  0.0000000E+00  0.0000000E+00  0.4473684E+00  0.5555556E-02
      1        -11.937396   1.000000
      2        -11.936953   1.000000
      3        -11.816223   1.000000
      4        -11.816115   1.000000
      5        -11.770691   1.000000
      6        -11.770456   1.000000
      7        -11.746961   1.000000
      8        -11.746927   1.000000
      9        -11.703189   1.000000
     10        -11.703151   1.000000
     11        -11.687383   1.000000
     12        -11.687371   1.000000
     13        -10.924517   1.000000
     14        -10.924026   1.000000
     15        -10.824534   1.000000
     16        -10.824397   1.000000
     17        -10.823846   1.000000
     18        -10.823723   1.000000
     19        -10.738372   1.000000
     20        -10.738236   1.000000
     21        -10.714715   1.000000
     22        -10.714369   1.000000
     23        -10.691510   1.000000
     24        -10.691451   1.000000
     25        -10.683194   1.000000
     26        -10.683150   1.000000
     27        -10.650050   1.000000
     28        -10.649994   1.000000
     29        -10.613999   1.000000
     30        -10.613934   1.000000
     31          0.108077   1.000000
     32          0.108280   1.000000
     33          1.179555   1.000000
     34          1.184010   1.000000
     35          4.274353   1.000000
     36          4.278729   1.000000
     37          5.212925   1.000000
     38          5.225798   1.000000
     39          7.355717   1.000000
     40          7.365354   1.000000
     41          7.411449   1.000000
     42          7.411984   1.000000
     43          7.515846   1.000000
     44          7.542297   1.000000
     45          7.552063   1.000000
     46          7.567900   1.000000
     47          7.772350   1.000000
     48          7.794776   1.000000
     49          7.995749   1.000000
     50          8.006867   1.000000
     51          8.043650   1.000000
     52          8.061704   1.000000
     53          8.130530   1.000000
     54          8.133711   1.000000
     55          8.447521   1.000000
     56          8.450284   1.000000
     57          8.715800   1.000000
     58          8.719090   1.000000
     59          9.106504   1.000000
     60          9.125406   1.000000
     61          9.187476   1.000000
     62          9.247360   1.000000
     63          9.312136   0.999999
     64          9.327897   0.999998
     65          9.419589   0.999963
     66          9.433598   0.999945
     67          9.494412   0.999705
     68          9.534807   0.999185
     69          9.560397   0.998509
     70          9.605164   0.996012
     71          9.658921   0.988487
     72          9.743695   0.952891
     73          9.872661   0.776861
     74          9.876807   0.768012
     75         10.512794   0.000083
     76         10.551735   0.000027
     77         11.408059   0.000000
     78         11.427657   0.000000
     79         11.649094   0.000000
     80         11.693925   0.000000
     81         13.042221   0.000000
     82         13.049939   0.000000
     83         13.179409   0.000000
     84         13.195927   0.000000
     85         14.254952   0.000000
     86         14.262638   0.000000
     87         14.299652   0.000000
     88         14.307096   0.000000

  0.0000000E+00  0.0000000E+00  0.4736842E+00  0.5555556E-02
      1        -11.937277   1.000000
      2        -11.936834   1.000000
      3        -11.815991   1.000000
      4        -11.815883   1.000000
      5        -11.770781   1.000000
      6        -11.770546   1.000000
      7        -11.747137   1.000000
      8        -11.747103   1.000000
      9        -11.703464   1.000000
     10        -11.703426   1.000000
     11        -11.686942   1.000000
     12        -11.686930   1.000000
     13        -10.924483   1.000000
     14        -10.923992   1.000000
     15        -10.824327   1.000000
     16        -10.824187   1.000000
     17        -10.823633   1.000000
     18        -10.823508   1.000000
     19        -10.738717   1.000000
     20        -10.738581   1.000000
     21        -10.714845   1.000000
     22        -10.714499   1.000000
     23        -10.691356   1.000000
     24        -10.691296   1.000000
     25        -10.682776   1.000000
     26        -10.682732   1.000000
     27        -10.649797   1.000000
     28        -10.649741   1.000000
     29        -10.613811   1.000000
     30        -10.613746   1.000000
     31          0.234648   1.000000
     32          0.235482   1.000000
     33          1.034990   1.000000
     34          1.040007   1.000000
     35          4.267115   1.000000
     36          4.271548   1.000000
     37          5.210341   1.000000
     38          5.223381   1.000000
     39          7.413739   1.000000
     40          7.414222   1.000000
     41          7.452967   1.000000
     42          7.465618   1.000000
     43          7.519749   1.000000
     44          7.549768   1.000000
     45          7.612476   1.000000
     46          7.622880   1.000000
     47          7.764443   1.000000
     48          7.803384   1.000000
     49          8.011023   1.000000
     50          8.016520   1.000000
     51          8.038867   1.000000
     52          8.054285   1.000000
     53          8.174381   1.000000
     54          8.175675   1.000000
     55          8.450597   1.000000
     56          8.453620   1.000000
     57          8.727026   1.000000
     58          8.729732   1.000000
     59          9.022399   1.000000
     60          9.042701   1.000000
     61          9.096695   1.000000
     62          9.164456   1.000000
     63          9.303807   0.999999
     64          9.322427   0.999998
     65          9.410384   0.999972
     66          9.424664   0.999957
     67          9.491311   0.999728
     68          9.532775   0.999225
     69          9.558090   0.998587
     70          9.603246   0.996170
     71          9.655929   0.989109
     72          9.744262   0.952496
     73          9.840741   0.838263
     74          9.841153   0.837548
     75         10.511996   0.000085
     76         10.550613   0.000028
     77         11.336513   0.000000
     78         11.356788   0.000000
     79         11.634270   0.000000
     80         11.679991   0.000000
     81         13.008586   0.000000
     82         13.016323   0.000000
     83         13.141831   0.000000
     84         13.158862   0.000000
     85         14.237605   0.000000
     86         14.245144   0.000000
     87         14.282077   0.000000
     88         14.289425   0.000000

  0.0000000E+00  0.0000000E+00  0.5000000E+00  0.5555556E-02
      1        -11.937245   1.000000
      2        -11.936802   1.000000
      3        -11.815929   1.000000
      4        -11.815821   1.000000
      5        -11.770823   1.000000
      6        -11.770588   1.000000
      7        -11.747196   1.000000
      8        -11.747162   1.000000
      9        -11.703557   1.000000
     10        -11.703519   1.000000
     11        -11.686810   1.000000
     12        -11.686798   1.000000
     13        -10.924482   1.000000
     14        -10.923991   1.000000
     15        -10.824282   1.000000
     16        -10.824141   1.000000
     17        -10.823582   1.000000
     18        -10.823455   1.000000
     19        -10.738833   1.000000
     20        -10.738697   1.000000
     21        -10.714898   1.000000
     22        -10.714553   1.000000
     23        -10.691304   1.000000
     24        -10.691245   1.000000
     25        -10.682666   1.000000
     26        -10.682620   1.000000
     27        -10.649753   1.000000
     28        -10.649697   1.000000
     29        -10.613749   1.000000
     30        -10.613683   1.000000
     31          0.288902   1.000000
     32          0.290167   1.000000
     33          0.974445   1.000000
     34          0.979868   1.000000
     35          4.264696   1.000000
     36          4.269147   1.000000
     37          5.209608   1.000000
     38          5.222704   1.000000
     39          7.414627   1.000000
     40          7.415060   1.000000
     41          7.492771   1.000000
     42          7.504832   1.000000
     43          7.525698   1.000000
     44          7.552268   1.000000
     45          7.628776   1.000000
     46          7.630893   1.000000
     47          7.760856   1.000000
     48          7.810771   1.000000
     49          8.025238   1.000000
     50          8.027475   1.000000
     51          8.029703   1.000000
     52          8.043006   1.000000
     53          8.190424   1.000000
     54          8.191567   1.000000
     55          8.451654   1.000000
     56          8.454770   1.000000
     57          8.730848   1.000000
     58          8.733377   1.000000
     59          8.990428   1.000000
     60          9.011226   1.000000
     61          9.063247   1.000000
     62          9.133456   1.000000
     63          9.302096   0.999999
     64          9.320990   0.999998
     65          9.408153   0.999974
     66          9.422447   0.999960
     67          9.490455   0.999734
     68          9.532138   0.999236
     69          9.557401   0.998609
     70          9.602675   0.996216
     71          9.655123   0.989272
     72          9.745223   0.951820
     73          9.828250   0.858961
     74          9.829979   0.856209
     75         10.511738   0.000086
     76         10.550251   0.000028
     77         11.312199   0.000000
     78         11.332715   0.000000
     79         11.629403   0.000000
     80         11.675418   0.000000
     81         12.997282   0.000000
     82         13.005021   0.000000
     83         13.129201   0.000000
     84         13.146410   0.000000
     85         14.231868   0.000000
     86         14.239358   0.000000
     87         14.276268   0.000000
     88         14.283584   0.000000

  0.0000000E+00  0.0000000E+00  0.5000000E+00  0.5555556E-02
      1        -11.937245   1.000000
      2        -11.936802   1.000000
      3        -11.815929   1.000000
      4        -11.815821   1.000000
      5        -11.770823   1.000000
      6        -11.770588   1.000000
      7        -11.747196   1.000000
      8        -11.747162   1.000000
      9        -11.703557   1.000000
     10        -11.703519   1.000000
     11        -11.686810   1.000000
     12        -11.686798   1.000000
     13        -10.924482   1.000000
     14        -10.923991   1.000000
     15        -10.824282   1.000000
     16        -10.824141   1.000000
     17        -10.823582   1.000000
     18        -10.823455   1.000000
     19        -10.738833   1.000000
     20        -10.738697   1.000000
     21        -10.714898   1.000000
     22        -10.714553   1.000000
     23        -10.691304   1.000000
     24        -10.691245   1.000000
     25        -10.682666   1.000000
     26        -10.682620   1.000000
     27        -10.649753   1.000000
     28        -10.649697   1.000000
     29        -10.613749   1.000000
     30        -10.613683   1.000000
     31          0.288902   1.000000
     32          0.290167   1.000000
     33          0.974445   1.000000
     34          0.979868   1.000000
     35          4.264696   1.000000
     36          4.269147   1.000000
     37          5.209608   1.000000
     38          5.222704   1.000000
     39          7.414627   1.000000
     40          7.415060   1.000000
     41          7.492771   1.000000
     42          7.504832   1.000000
     43          7.525698   1.000000
     44          7.552268   1.000000
     45          7.628776   1.000000
     46          7.630893   1.000000
     47          7.760856   1.000000
     48          7.810771   1.000000
     49          8.025238   1.000000
     50          8.027475   1.000000
     51          8.029703   1.000000
     52          8.043006   1.000000
     53          8.190424   1.000000
     54          8.191567   1.000000
     55          8.451654   1.000000
     56          8.454770   1.000000
     57          8.730848   1.000000
     58          8.733377   1.000000
     59          8.990428   1.000000
     60          9.011226   1.000000
     61          9.063247   1.000000
     62          9.133456   1.000000
     63          9.302096   0.999999
     64          9.320990   0.999998
     65          9.408153   0.999974
     66          9.422447   0.999960
     67          9.490455   0.999734
     68          9.532138   0.999236
     69          9.557401   0.998609
     70          9.602675   0.996216
     71          9.655123   0.989272
     72          9.745223   0.951820
     73          9.828250   0.858961
     74          9.829979   0.856209
     75         10.511738   0.000086
     76         10.550251   0.000028
     77         11.312199   0.000000
     78         11.332715   0.000000
     79         11.629403   0.000000
     80         11.675418   0.000000
     81         12.997282   0.000000
     82         13.005021   0.000000
     83         13.129201   0.000000
     84         13.146410   0.000000
     85         14.231868   0.000000
     86         14.239358   0.000000
     87         14.276268   0.000000
     88         14.283584   0.000000

  0.2631579E-01  0.0000000E+00  0.5000000E+00  0.5555556E-02
      1        -11.937228   1.000000
      2        -11.936785   1.000000
      3        -11.815883   1.000000
      4        -11.815775   1.000000
      5        -11.770771   1.000000
      6        -11.770536   1.000000
      7        -11.747395   1.000000
      8        -11.747362   1.000000
      9        -11.703525   1.000000
     10        -11.703487   1.000000
     11        -11.686786   1.000000
     12        -11.686774   1.000000
     13        -10.924420   1.000000
     14        -10.923929   1.000000
     15        -10.824484   1.000000
     16        -10.824359   1.000000
     17        -10.823410   1.000000
     18        -10.823285   1.000000
     19        -10.738464   1.000000
     20        -10.738330   1.000000
     21        -10.714919   1.000000
     22        -10.714575   1.000000
     23        -10.693545   1.000000
     24        -10.693489   1.000000
     25        -10.680558   1.000000
     26        -10.680521   1.000000
     27        -10.649765   1.000000
     28        -10.649709   1.000000
     29        -10.613729   1.000000
     30        -10.613664   1.000000
     31          0.293209   1.000000
     32          0.294469   1.000000
     33          0.979681   1.000000
     34          0.985109   1.000000
     35          4.254102   1.000000
     36          4.258483   1.000000
     37          5.206987   1.000000
     38          5.220081   1.000000
     39          7.377472   1.000000
     40          7.378854   1.000000
     41          7.478036   1.000000
     42          7.482154   1.000000
     43          7.505708   1.000000
     44          7.520127   1.000000
     45          7.671478   1.000000
     46          7.675874   1.000000
     47          7.753480   1.000000
     48          7.801945   1.000000
     49          8.023536   1.000000
     50          8.037177   1.000000
     51          8.043450   1.000000
     52          8.048790   1.000000
     53          8.181392   1.000000
     54          8.182881   1.000000
     55          8.442790   1.000000
     56          8.445558   1.000000
     57          8.719197   1.000000
     58          8.723121   1.000000
     59          8.990565   1.000000
     60          9.011402   1.000000
     61          9.065799   1.000000
     62          9.135684   1.000000
     63          9.302767   0.999999
     64          9.322187   0.999998
     65          9.416142   0.999967
     66          9.430028   0.999950
     67          9.492512   0.999719
     68          9.532871   0.999223
     69          9.559134   0.998552
     70          9.604578   0.996061
     71          9.662178   0.987775
     72          9.755549   0.944054
     73          9.834613   0.848653
     74          9.837103   0.844485
     75         10.514559   0.000079
     76         10.552536   0.000026
     77         11.322706   0.000000
     78         11.342991   0.000000
     79         11.652644   0.000000
     80         11.697382   0.000000
     81         13.014043   0.000000
     82         13.022277   0.000000
     83         13.142366   0.000000
     84         13.158718   0.000000
     85         14.250030   0.000000
     86         14.254857   0.000000
     87         14.292215   0.000000
     88         14.297264   0.000000

  0.5263158E-01  0.0000000E+00  0.5000000E+00  0.5555556E-02
      1        -11.937207   1.000000
      2        -11.936764   1.000000
      3        -11.815841   1.000000
      4        -11.815734   1.000000
      5        -11.770658   1.000000
      6        -11.770424   1.000000
      7        -11.747991   1.000000
      8        -11.747958   1.000000
      9        -11.703428   1.000000
     10        -11.703390   1.000000
     11        -11.686768   1.000000
     12        -11.686758   1.000000
     13        -10.924279   1.000000
     14        -10.923788   1.000000
     15        -10.824961   1.000000
     16        -10.824850   1.000000
     17        -10.823260   1.000000
     18        -10.823132   1.000000
     19        -10.737384   1.000000
     20        -10.737254   1.000000
     21        -10.715078   1.000000
     22        -10.714742   1.000000
     23        -10.697815   1.000000
     24        -10.697754   1.000000
     25        -10.676808   1.000000
     26        -10.676778   1.000000
     27        -10.649866   1.000000
     28        -10.649811   1.000000
     29        -10.613685   1.000000
     30        -10.613622   1.000000
     31          0.306118   1.000000
     32          0.307365   1.000000
     33          0.995365   1.000000
     34          1.000808   1.000000
     35          4.222598   1.000000
     36          4.226774   1.000000
     37          5.198898   1.000000
     38          5.211980   1.000000
     39          7.289055   1.000000
     40          7.292701   1.000000
     41          7.425172   1.000000
     42          7.435253   1.000000
     43          7.468043   1.000000
     44          7.473067   1.000000
     45          7.729176   1.000000
     46          7.743663   1.000000
     47          7.747454   1.000000
     48          7.776481   1.000000
     49          8.022551   1.000000
     50          8.037071   1.000000
     51          8.081669   1.000000
     52          8.083422   1.000000
     53          8.156975   1.000000
     54          8.159286   1.000000
     55          8.417399   1.000000
     56          8.419958   1.000000
     57          8.689982   1.000000
     58          8.698755   1.000000
     59          8.990854   1.000000
     60          9.011780   1.000000
     61          9.072421   1.000000
     62          9.141474   1.000000
     63          9.304198   0.999999
     64          9.324630   0.999998
     65          9.438311   0.999937
     66          9.449268   0.999913
     67          9.499888   0.999660
     68          9.535328   0.999175
     69          9.563229   0.998409
     70          9.608625   0.995714
     71          9.683039   0.982244
     72          9.783376   0.918186
     73          9.852818   0.816458
     74          9.857560   0.807416
     75         10.523229   0.000062
     76         10.559559   0.000021
     77         11.353851   0.000000
     78         11.373470   0.000000
     79         11.720674   0.000000
     80         11.761890   0.000000
     81         13.061718   0.000000
     82         13.071782   0.000000
     83         13.184194   0.000000
     84         13.197680   0.000000
     85         14.280592   0.000000
     86         14.296206   0.000000
     87         14.345432   0.000000
     88         14.361212   0.000000

  0.7894737E-01  0.0000000E+00  0.5000000E+00  0.5555556E-02
      1        -11.937131   1.000000
      2        -11.936688   1.000000
      3        -11.815652   1.000000
      4        -11.815545   1.000000
      5        -11.770427   1.000000
      6        -11.770193   1.000000
      7        -11.748968   1.000000
      8        -11.748938   1.000000
      9        -11.703261   1.000000
     10        -11.703224   1.000000
     11        -11.686682   1.000000
     12        -11.686672   1.000000
     13        -10.923994   1.000000
     14        -10.923501   1.000000
     15        -10.825465   1.000000
     16        -10.825368   1.000000
     17        -10.823003   1.000000
     18        -10.822872   1.000000
     19        -10.735648   1.000000
     20        -10.735526   1.000000
     21        -10.715507   1.000000
     22        -10.715197   1.000000
     23        -10.702234   1.000000
     24        -10.702153   1.000000
     25        -10.672810   1.000000
     26        -10.672784   1.000000
     27        -10.649942   1.000000
     28        -10.649889   1.000000
     29        -10.613605   1.000000
     30        -10.613546   1.000000
     31          0.327596   1.000000
     32          0.328821   1.000000
     33          1.021435   1.000000
     34          1.026903   1.000000
     35          4.170989   1.000000
     36          4.174839   1.000000
     37          5.184669   1.000000
     38          5.197712   1.000000
     39          7.178714   1.000000
     40          7.183944   1.000000
     41          7.353201   1.000000
     42          7.364502   1.000000
     43          7.410352   1.000000
     44          7.415161   1.000000
     45          7.694691   1.000000
     46          7.733457   1.000000
     47          7.809702   1.000000
     48          7.813029   1.000000
     49          8.021463   1.000000
     50          8.033967   1.000000
     51          8.119780   1.000000
     52          8.120591   1.000000
     53          8.138270   1.000000
     54          8.140159   1.000000
     55          8.380546   1.000000
     56          8.383379   1.000000
     57          8.655953   1.000000
     58          8.672615   1.000000
     59          8.991142   1.000000
     60          9.012164   1.000000
     61          9.080747   1.000000
     62          9.148792   1.000000
     63          9.305535   0.999999
     64          9.326777   0.999998
     65          9.462207   0.999876
     66          9.474787   0.999825
     67          9.516261   0.999484
     68          9.542430   0.999022
     69          9.569138   0.998180
     70          9.613424   0.995267
     71          9.714232   0.970075
     72          9.821641   0.869154
     73          9.880616   0.759715
     74          9.888711   0.741553
     75         10.538466   0.000040
     76         10.571931   0.000014
     77         11.404667   0.000000
     78         11.423260   0.000000
     79         11.829223   0.000000
     80         11.865444   0.000000
     81         13.132249   0.000000
     82         13.145684   0.000000
     83         13.262296   0.000000
     84         13.270814   0.000000
     85         14.321137   0.000000
     86         14.339595   0.000000
     87         14.459050   0.000000
     88         14.477442   0.000000

  0.1052632E+00  0.0000000E+00  0.5000000E+00  0.5555556E-02
      1        -11.937011   1.000000
      2        -11.936569   1.000000
      3        -11.815304   1.000000
      4        -11.815199   1.000000
      5        -11.770084   1.000000
      6        -11.769851   1.000000
      7        -11.750305   1.000000
      8        -11.750277   1.000000
      9        -11.703016   1.000000
     10        -11.702979   1.000000
     11        -11.686552   1.000000
     12        -11.686543   1.000000
     13        -10.923577   1.000000
     14        -10.923082   1.000000
     15        -10.825927   1.000000
     16        -10.825845   1.000000
     17        -10.822656   1.000000
     18        -10.822524   1.000000
     19        -10.733351   1.000000
     20        -10.733240   1.000000
     21        -10.716726   1.000000
     22        -10.716483   1.000000
     23        -10.705904   1.000000
     24        -10.705764   1.000000
     25        -10.668963   1.000000
     26        -10.668939   1.000000
     27        -10.649976   1.000000
     28        -10.649926   1.000000
     29        -10.613491   1.000000
     30        -10.613435   1.000000
     31          0.357586   1.000000
     32          0.358778   1.000000
     33          1.057781   1.000000
     34          1.063286   1.000000
     35          4.100548   1.000000
     36          4.103974   1.000000
     37          5.163160   1.000000
     38          5.176112   1.000000
     39          7.058120   1.000000
     40          7.064366   1.000000
     41          7.267505   1.000000
     42          7.275457   1.000000
     43          7.333652   1.000000
     44          7.341339   1.000000
     45          7.646894   1.000000
     46          7.679083   1.000000
     47          7.854451   1.000000
     48          7.856969   1.000000
     49          8.019481   1.000000
     50          8.029700   1.000000
     51          8.099442   1.000000
     52          8.099817   1.000000
     53          8.189809   1.000000
     54          8.194030   1.000000
     55          8.341485   1.000000
     56          8.344053   1.000000
     57          8.627452   1.000000
     58          8.653691   1.000000
     59          8.991364   1.000000
     60          9.012459   1.000000
     61          9.088060   1.000000
     62          9.155240   1.000000
     63          9.306410   0.999999
     64          9.328175   0.999998
     65          9.470870   0.999843
     66          9.500918   0.999651
     67          9.535557   0.999170
     68          9.563549   0.998398
     69          9.580917   0.997633
     70          9.619663   0.994623
     71          9.749903   0.948414
     72          9.864006   0.794699
     73          9.915197   0.677550
     74          9.926686   0.647887
     75         10.561271   0.000020
     76         10.590591   0.000008
     77         11.473961   0.000000
     78         11.491283   0.000000
     79         11.972452   0.000000
     80         12.003089   0.000000
     81         13.216392   0.000000
     82         13.232543   0.000000
     83         13.384660   0.000000
     84         13.388412   0.000000
     85         14.375997   0.000000
     86         14.394914   0.000000
     87         14.622030   0.000000
     88         14.640611   0.000000

  0.1315789E+00  0.0000000E+00  0.5000000E+00  0.5555556E-02
      1        -11.936879   1.000000
      2        -11.936436   1.000000
      3        -11.814860   1.000000
      4        -11.814757   1.000000
      5        -11.769689   1.000000
      6        -11.769457   1.000000
      7        -11.752011   1.000000
      8        -11.751985   1.000000
      9        -11.702709   1.000000
     10        -11.702672   1.000000
     11        -11.686429   1.000000
     12        -11.686420   1.000000
     13        -10.923087   1.000000
     14        -10.922590   1.000000
     15        -10.826420   1.000000
     16        -10.826351   1.000000
     17        -10.822284   1.000000
     18        -10.822153   1.000000
     19        -10.730758   1.000000
     20        -10.730662   1.000000
     21        -10.719509   1.000000
     22        -10.719365   1.000000
     23        -10.707939   1.000000
     24        -10.707708   1.000000
     25        -10.665451   1.000000
     26        -10.665425   1.000000
     27        -10.649979   1.000000
     28        -10.649932   1.000000
     29        -10.613378   1.000000
     30        -10.613328   1.000000
     31          0.396006   1.000000
     32          0.397154   1.000000
     33          1.104240   1.000000
     34          1.109794   1.000000
     35          4.012885   1.000000
     36          4.015812   1.000000
     37          5.132730   1.000000
     38          5.145499   1.000000
     39          6.932739   1.000000
     40          6.939622   1.000000
     41          7.165534   1.000000
     42          7.169220   1.000000
     43          7.245669   1.000000
     44          7.259364   1.000000
     45          7.589580   1.000000
     46          7.615091   1.000000
     47          7.857653   1.000000
     48          7.859863   1.000000
     49          8.014133   1.000000
     50          8.019989   1.000000
     51          8.106155   1.000000
     52          8.110215   1.000000
     53          8.245197   1.000000
     54          8.253347   1.000000
     55          8.309275   1.000000
     56          8.311576   1.000000
     57          8.608922   1.000000
     58          8.644973   1.000000
     59          8.991482   1.000000
     60          9.012619   1.000000
     61          9.092184   1.000000
     62          9.158865   1.000000
     63          9.306772   0.999999
     64          9.328917   0.999998
     65          9.471436   0.999840
     66          9.508670   0.999574
     67          9.552085   0.998771
     68          9.592338   0.996964
     69          9.607099   0.995848
     70          9.628599   0.993566
     71          9.785494   0.915898
     72          9.906759   0.698650
     73          9.953939   0.574134
     74          9.967583   0.536029
     75         10.592531   0.000008
     76         10.616508   0.000003
     77         11.560707   0.000000
     78         11.576639   0.000000
     79         12.144189   0.000000
     80         12.169368   0.000000
     81         13.312576   0.000000
     82         13.329180   0.000000
     83         13.550562   0.000000
     84         13.551534   0.000000
     85         14.446769   0.000000
     86         14.465799   0.000000
     87         14.828793   0.000000
     88         14.847204   0.000000

  0.1578947E+00  0.0000000E+00  0.5000000E+00  0.5555556E-02
      1        -11.936667   1.000000
      2        -11.936223   1.000000
      3        -11.814190   1.000000
      4        -11.814089   1.000000
      5        -11.769151   1.000000
      6        -11.768921   1.000000
      7        -11.753871   1.000000
      8        -11.753845   1.000000
      9        -11.702266   1.000000
     10        -11.702229   1.000000
     11        -11.686284   1.000000
     12        -11.686274   1.000000
     13        -10.922419   1.000000
     14        -10.921919   1.000000
     15        -10.826748   1.000000
     16        -10.826691   1.000000
     17        -10.821676   1.000000
     18        -10.821548   1.000000
     19        -10.728386   1.000000
     20        -10.728330   1.000000
     21        -10.722869   1.000000
     22        -10.722807   1.000000
     23        -10.708224   1.000000
     24        -10.707934   1.000000
     25        -10.662207   1.000000
     26        -10.662180   1.000000
     27        -10.649840   1.000000
     28        -10.649798   1.000000
     29        -10.613170   1.000000
     30        -10.613123   1.000000
     31          0.442746   1.000000
     32          0.443838   1.000000
     33          1.160605   1.000000
     34          1.166221   1.000000
     35          3.909860   1.000000
     36          3.912239   1.000000
     37          5.091272   1.000000
     38          5.103719   1.000000
     39          6.806436   1.000000
     40          6.813687   1.000000
     41          7.045749   1.000000
     42          7.047424   1.000000
     43          7.158995   1.000000
     44          7.176656   1.000000
     45          7.525412   1.000000
     46          7.544805   1.000000
     47          7.817828   1.000000
     48          7.821298   1.000000
     49          8.006577   1.000000
     50          8.008017   1.000000
     51          8.146463   1.000000
     52          8.152975   1.000000
     53          8.285522   1.000000
     54          8.288613   1.000000
     55          8.303676   1.000000
     56          8.314235   1.000000
     57          8.600892   1.000000
     58          8.646052   1.000000
     59          8.991531   1.000000
     60          9.012675   1.000000
     61          9.091787   1.000000
     62          9.158423   1.000000
     63          9.306688   0.999999
     64          9.329170   0.999998
     65          9.467377   0.999857
     66          9.504587   0.999616
     67          9.562194   0.998447
     68          9.621214   0.994452
     69          9.634536   0.992766
     70          9.643036   0.991468
     71          9.818648   0.873597
     72          9.947929   0.590724
     73          9.994787   0.459406
     74         10.008835   0.420247
     75         10.632606   0.000002
     76         10.650337   0.000001
     77         11.664368   0.000000
     78         11.678894   0.000000
     79         12.339201   0.000000
     80         12.359481   0.000000
     81         13.423439   0.000000
     82         13.439110   0.000000
     83         13.753246   0.000000
     84         13.754306   0.000000
     85         14.534465   0.000000
     86         14.553497   0.000000
     87         15.076003   0.000000
     88         15.094152   0.000000

  0.1842105E+00  0.0000000E+00  0.5000000E+00  0.5555556E-02
      1        -11.936481   1.000000
      2        -11.936037   1.000000
      3        -11.813585   1.000000
      4        -11.813488   1.000000
      5        -11.768703   1.000000
      6        -11.768476   1.000000
      7        -11.756130   1.000000
      8        -11.756101   1.000000
      9        -11.701771   1.000000
     10        -11.701735   1.000000
     11        -11.686223   1.000000
     12        -11.686213   1.000000
     13        -10.921777   1.000000
     14        -10.921274   1.000000
     15        -10.827224   1.000000
     16        -10.827176   1.000000
     17        -10.821190   1.000000
     18        -10.821067   1.000000
     19        -10.730527   1.000000
     20        -10.730494   1.000000
     21        -10.722644   1.000000
     22        -10.722601   1.000000
     23        -10.707794   1.000000
     24        -10.707482   1.000000
     25        -10.659642   1.000000
     26        -10.659611   1.000000
     27        -10.649580   1.000000
     28        -10.649543   1.000000
     29        -10.613069   1.000000
     30        -10.613026   1.000000
     31          0.497645   1.000000
     32          0.498667   1.000000
     33          1.226556   1.000000
     34          1.232251   1.000000
     35          3.793484   1.000000
     36          3.795288   1.000000
     37          5.036319   1.000000
     38          5.048253   1.000000
     39          6.682338   1.000000
     40          6.689767   1.000000
     41          6.916067   1.000000
     42          6.917356   1.000000
     43          7.077682   1.000000
     44          7.096836   1.000000
     45          7.456906   1.000000
     46          7.471018   1.000000
     47          7.754722   1.000000
     48          7.758606   1.000000
     49          7.995147   1.000000
     50          8.002949   1.000000
     51          8.199949   1.000000
     52          8.207802   1.000000
     53          8.278485   1.000000
     54          8.284071   1.000000
     55          8.353333   1.000000
     56          8.371180   1.000000
     57          8.602309   1.000000
     58          8.655542   1.000000
     59          8.991498   1.000000
     60          9.012614   1.000000
     61          9.086163   1.000000
     62          9.153199   1.000000
     63          9.306169   0.999999
     64          9.328985   0.999998
     65          9.459607   0.999884
     66          9.494521   0.999704
     67          9.569948   0.998147
     68          9.641214   0.991762
     69          9.653763   0.989541
     70          9.661576   0.987909
     71          9.848370   0.824692
     72          9.985953   0.484261
     73         10.036234   0.346419
     74         10.049442   0.312633
     75         10.680530   0.000000
     76         10.691598   0.000000
     77         11.784843   0.000000
     78         11.798009   0.000000
     79         12.553167   0.000000
     80         12.569290   0.000000
     81         13.550659   0.000000
     82         13.564800   0.000000
     83         13.986879   0.000000
     84         13.989115   0.000000
     85         14.639763   0.000000
     86         14.658721   0.000000
     87         15.359392   0.000000
     88         15.377257   0.000000

  0.2105263E+00  0.0000000E+00  0.5000000E+00  0.5555556E-02
      1        -11.936245   1.000000
      2        -11.935800   1.000000
      3        -11.812710   1.000000
      4        -11.812616   1.000000
      5        -11.768192   1.000000
      6        -11.767972   1.000000
      7        -11.758516   1.000000
      8        -11.758479   1.000000
      9        -11.701176   1.000000
     10        -11.701140   1.000000
     11        -11.686174   1.000000
     12        -11.686162   1.000000
     13        -10.921027   1.000000
     14        -10.920521   1.000000
     15        -10.827479   1.000000
     16        -10.827435   1.000000
     17        -10.820424   1.000000
     18        -10.820308   1.000000
     19        -10.735597   1.000000
     20        -10.735560   1.000000
     21        -10.719652   1.000000
     22        -10.719613   1.000000
     23        -10.706626   1.000000
     24        -10.706313   1.000000
     25        -10.657737   1.000000
     26        -10.657706   1.000000
     27        -10.648838   1.000000
     28        -10.648806   1.000000
     29        -10.612965   1.000000
     30        -10.612922   1.000000
     31          0.560504   1.000000
     32          0.561439   1.000000
     33          1.301719   1.000000
     34          1.307512   1.000000
     35          3.665847   1.000000
     36          3.667064   1.000000
     37          4.965435   1.000000
     38          4.976632   1.000000
     39          6.562987   1.000000
     40          6.570459   1.000000
     41          6.786640   1.000000
     42          6.789582   1.000000
     43          7.001615   1.000000
     44          7.021147   1.000000
     45          7.386503   1.000000
     46          7.396234   1.000000
     47          7.681628   1.000000
     48          7.684883   1.000000
     49          7.986256   1.000000
     50          7.999038   1.000000
     51          8.254425   1.000000
     52          8.259905   1.000000
     53          8.285558   1.000000
     54          8.289546   1.000000
     55          8.402625   1.000000
     56          8.426960   1.000000
     57          8.611802   1.000000
     58          8.672081   1.000000
     59          8.991449   1.000000
     60          9.012490   1.000000
     61          9.075308   1.000000
     62          9.143106   1.000000
     63          9.305365   0.999999
     64          9.328494   0.999998
     65          9.448757   0.999915
     66          9.480365   0.999797
     67          9.577359   0.997812
     68          9.654922   0.989312
     69          9.666478   0.986776
     70          9.671511   0.985518
     71          9.874341   0.773299
     72         10.019480   0.391069
     73         10.077052   0.247106
     74         10.089176   0.220840
     75         10.734886   0.000000
     76         10.739409   0.000000
     77         11.922401   0.000000
     78         11.934270   0.000000
     79         12.783457   0.000000
     80         12.796194   0.000000
     81         13.694867   0.000000
     82         13.707229   0.000000
     83         14.245477   0.000000
     84         14.248723   0.000000
     85         14.763599   0.000000
     86         14.782390   0.000000
     87         15.675615   0.000000
     88         15.693200   0.000000

  0.2368421E+00  0.0000000E+00  0.5000000E+00  0.5555556E-02
      1        -11.936028   1.000000
      2        -11.935583   1.000000
      3        -11.811772   1.000000
      4        -11.811683   1.000000
      5        -11.767810   1.000000
      6        -11.767604   1.000000
      7        -11.761002   1.000000
      8        -11.760947   1.000000
      9        -11.700551   1.000000
     10        -11.700515   1.000000
     11        -11.686205   1.000000
     12        -11.686192   1.000000
     13        -10.920308   1.000000
     14        -10.919798   1.000000
     15        -10.827743   1.000000
     16        -10.827699   1.000000
     17        -10.819609   1.000000
     18        -10.819502   1.000000
     19        -10.741119   1.000000
     20        -10.741087   1.000000
     21        -10.716597   1.000000
     22        -10.716550   1.000000
     23        -10.705004   1.000000
     24        -10.704709   1.000000
     25        -10.656655   1.000000
     26        -10.656623   1.000000
     27        -10.647652   1.000000
     28        -10.647620   1.000000
     29        -10.612959   1.000000
     30        -10.612914   1.000000
     31          0.631039   1.000000
     32          0.631868   1.000000
     33          1.385567   1.000000
     34          1.391479   1.000000
     35          3.529105   1.000000
     36          3.529739   1.000000
     37          4.876797   1.000000
     38          4.887036   1.000000
     39          6.450407   1.000000
     40          6.457834   1.000000
     41          6.666732   1.000000
     42          6.672036   1.000000
     43          6.930753   1.000000
     44          6.950250   1.000000
     45          7.316377   1.000000
     46          7.322560   1.000000
     47          7.604903   1.000000
     48          7.606925   1.000000
     49          7.979729   1.000000
     50          7.996225   1.000000
     51          8.284797   1.000000
     52          8.293940   1.000000
     53          8.315406   1.000000
     54          8.325495   1.000000
     55          8.449349   1.000000
     56          8.480854   1.000000
     57          8.627996   1.000000
     58          8.694478   1.000000
     59          8.991366   1.000000
     60          9.012257   1.000000
     61          9.059570   1.000000
     62          9.128371   1.000000
     63          9.304255   0.999999
     64          9.327637   0.999998
     65          9.435380   0.999942
     66          9.463121   0.999873
     67          9.584553   0.997436
     68          9.663641   0.987442
     69          9.669743   0.985971
     70          9.672629   0.985225
     71          9.896515   0.723396
     72         10.047786   0.316791
     73         10.116228   0.168365
     74         10.127735   0.148703
     75         10.791566   0.000000
     76         10.793064   0.000000
     77         12.077311   0.000000
     78         12.087934   0.000000
     79         13.027901   0.000000
     80         13.037957   0.000000
     81         13.855843   0.000000
     82         13.866336   0.000000
     83         14.521451   0.000000
     84         14.525623   0.000000
     85         14.906340   0.000000
     86         14.924857   0.000000
     87         16.020615   0.000000
     88         16.037950   0.000000

  0.2631579E+00  0.0000000E+00  0.5000000E+00  0.5555556E-02
      1        -11.935788   1.000000
      2        -11.935343   1.000000
      3        -11.810683   1.000000
      4        -11.810599   1.000000
      5        -11.767764   1.000000
      6        -11.767598   1.000000
      7        -11.763220   1.000000
      8        -11.763122   1.000000
      9        -11.699820   1.000000
     10        -11.699784   1.000000
     11        -11.686319   1.000000
     12        -11.686304   1.000000
     13        -10.919554   1.000000
     14        -10.919040   1.000000
     15        -10.827921   1.000000
     16        -10.827874   1.000000
     17        -10.818550   1.000000
     18        -10.818456   1.000000
     19        -10.746653   1.000000
     20        -10.746625   1.000000
     21        -10.713903   1.000000
     22        -10.713811   1.000000
     23        -10.702757   1.000000
     24        -10.702501   1.000000
     25        -10.656230   1.000000
     26        -10.656199   1.000000
     27        -10.646081   1.000000
     28        -10.646042   1.000000
     29        -10.613024   1.000000
     30        -10.612976   1.000000
     31          0.708887   1.000000
     32          0.709585   1.000000
     33          1.477412   1.000000
     34          1.483470   1.000000
     35          3.385429   1.000000
     36          3.385498   1.000000
     37          4.769915   1.000000
     38          4.779026   1.000000
     39          6.346143   1.000000
     40          6.353474   1.000000
     41          6.562317   1.000000
     42          6.570224   1.000000
     43          6.865413   1.000000
     44          6.884738   1.000000
     45          7.248422   1.000000
     46          7.251775   1.000000
     47          7.528143   1.000000
     48          7.528666   1.000000
     49          7.975190   1.000000
     50          7.994456   1.000000
     51          8.303676   1.000000
     52          8.314295   1.000000
     53          8.361596   1.000000
     54          8.373326   1.000000
     55          8.493520   1.000000
     56          8.532716   1.000000
     57          8.649644   1.000000
     58          8.721721   1.000000
     59          8.991239   1.000000
     60          9.011760   1.000000
     61          9.039754   1.000000
     62          9.109536   1.000000
     63          9.302830   0.999999
     64          9.326339   0.999998
     65          9.420050   0.999963
     66          9.443581   0.999926
     67          9.591254   0.997034
     68          9.656872   0.988916
     69          9.659004   0.988469
     70          9.681826   0.982616
     71          9.914967   0.678132
     72         10.070906   0.261032
     73         10.152832   0.111332
     74         10.164322   0.096677
     75         10.845661   0.000000
     76         10.852366   0.000000
     77         12.249655   0.000000
     78         12.259045   0.000000
     79         13.285278   0.000000
     80         13.293257   0.000000
     81         14.032887   0.000000
     82         14.041507   0.000000
     83         14.805633   0.000000
     84         14.810750   0.000000
     85         15.068596   0.000000
     86         15.086705   0.000000
     87         16.390752   0.000000
     88         16.407898   0.000000

  0.2894737E+00  0.0000000E+00  0.5000000E+00  0.5555556E-02
      1        -11.935544   1.000000
      2        -11.935098   1.000000
      3        -11.809496   1.000000
      4        -11.809418   1.000000
      5        -11.768835   1.000000
      6        -11.768747   1.000000
      7        -11.764539   1.000000
      8        -11.764359   1.000000
      9        -11.699034   1.000000
     10        -11.698998   1.000000
     11        -11.686492   1.000000
     12        -11.686476   1.000000
     13        -10.918815   1.000000
     14        -10.918298   1.000000
     15        -10.828104   1.000000
     16        -10.828053   1.000000
     17        -10.817276   1.000000
     18        -10.817196   1.000000
     19        -10.752272   1.000000
     20        -10.752247   1.000000
     21        -10.711657   1.000000
     22        -10.711506   1.000000
     23        -10.700107   1.000000
     24        -10.699899   1.000000
     25        -10.656231   1.000000
     26        -10.656199   1.000000
     27        -10.644360   1.000000
     28        -10.644314   1.000000
     29        -10.613178   1.000000
     30        -10.613124   1.000000
     31          0.793540   1.000000
     32          0.794078   1.000000
     33          1.576319   1.000000
     34          1.582556   1.000000
     35          3.236568   1.000000
     36          3.237076   1.000000
     37          4.646204   1.000000
     38          4.654103   1.000000
     39          6.251330   1.000000
     40          6.258542   1.000000
     41          6.476171   1.000000
     42          6.486752   1.000000
     43          6.806025   1.000000
     44          6.825149   1.000000
     45          7.184214   1.000000
     46          7.185340   1.000000
     47          7.452514   1.000000
     48          7.453899   1.000000
     49          7.972212   1.000000
     50          7.993572   1.000000
     51          8.326413   1.000000
     52          8.336499   1.000000
     53          8.404599   1.000000
     54          8.416671   1.000000
     55          8.535152   1.000000
     56          8.582212   1.000000
     57          8.675572   1.000000
     58          8.752872   1.000000
     59          8.990904   1.000000
     60          9.008802   1.000000
     61          9.018968   1.000000
     62          9.087308   1.000000
     63          9.300966   0.999999
     64          9.324361   0.999998
     65          9.403405   0.999977
     66          9.422547   0.999960
     67          9.597011   0.996644
     68          9.639004   0.992107
     69          9.640172   0.991927
     70          9.692241   0.979195
     71          9.929929   0.639337
     72         10.089367   0.220440
     73         10.186104   0.072870
     74         10.197991   0.061927
     75         10.899121   0.000000
     76         10.910183   0.000000
     77         12.439046   0.000000
     78         12.447182   0.000000
     79         13.554644   0.000000
     80         13.561040   0.000000
     81         14.225130   0.000000
     82         14.231915   0.000000
     83         15.084788   0.000000
     84         15.091005   0.000000
     85         15.250715   0.000000
     86         15.268221   0.000000
     87         16.781781   0.000000
     88         16.798849   0.000000

  0.3157895E+00  0.0000000E+00  0.5000000E+00  0.5555556E-02
      1        -11.935326   1.000000
      2        -11.934879   1.000000
      3        -11.808165   1.000000
      4        -11.808095   1.000000
      5        -11.771136   1.000000
      6        -11.771077   1.000000
      7        -11.764699   1.000000
      8        -11.764482   1.000000
      9        -11.698221   1.000000
     10        -11.698184   1.000000
     11        -11.686745   1.000000
     12        -11.686728   1.000000
     13        -10.918148   1.000000
     14        -10.917628   1.000000
     15        -10.828239   1.000000
     16        -10.828183   1.000000
     17        -10.815765   1.000000
     18        -10.815700   1.000000
     19        -10.757767   1.000000
     20        -10.757744   1.000000
     21        -10.709809   1.000000
     22        -10.709606   1.000000
     23        -10.697193   1.000000
     24        -10.697029   1.000000
     25        -10.656514   1.000000
     26        -10.656481   1.000000
     27        -10.642628   1.000000
     28        -10.642576   1.000000
     29        -10.613437   1.000000
     30        -10.613377   1.000000
     31          0.884278   1.000000
     32          0.884616   1.000000
     33          1.681000   1.000000
     34          1.687456   1.000000
     35          3.085252   1.000000
     36          3.086316   1.000000
     37          4.509042   1.000000
     38          4.515735   1.000000
     39          6.166777   1.000000
     40          6.173866   1.000000
     41          6.408413   1.000000
     42          6.421620   1.000000
     43          6.753019   1.000000
     44          6.771968   1.000000
     45          7.124397   1.000000
     46          7.125051   1.000000
     47          7.380536   1.000000
     48          7.383778   1.000000
     49          7.970402   1.000000
     50          7.993374   1.000000
     51          8.352689   1.000000
     52          8.361298   1.000000
     53          8.442035   1.000000
     54          8.454483   1.000000
     55          8.574022   1.000000
     56          8.628661   1.000000
     57          8.704605   1.000000
     58          8.786986   1.000000
     59          8.985195   1.000000
     60          8.993413   1.000000
     61          9.013301   1.000000
     62          9.062665   1.000000
     63          9.298462   0.999999
     64          9.321247   0.999998
     65          9.386222   0.999987
     66          9.401064   0.999979
     67          9.600050   0.996420
     68          9.614189   0.995192
     69          9.617160   0.994890
     70          9.701726   0.975600
     71          9.941755   0.607599
     72         10.103843   0.191313
     73         10.215503   0.048194
     74         10.227980   0.039986
     75         10.949813   0.000000
     76         10.964404   0.000000
     77         12.644173   0.000000
     78         12.650998   0.000000
     79         13.835141   0.000000
     80         13.840343   0.000000
     81         14.430955   0.000000
     82         14.435965   0.000000
     83         15.340290   0.000000
     84         15.347883   0.000000
     85         15.452827   0.000000
     86         15.469499   0.000000
     87         17.188641   0.000000
     88         17.205856   0.000000

  0.3421053E+00  0.0000000E+00  0.5000000E+00  0.5555556E-02
      1        -11.935077   1.000000
      2        -11.934629   1.000000
      3        -11.806681   1.000000
      4        -11.806619   1.000000
      5        -11.773818   1.000000
      6        -11.773754   1.000000
      7        -11.764427   1.000000
      8        -11.764201   1.000000
      9        -11.697329   1.000000
     10        -11.697292   1.000000
     11        -11.687051   1.000000
     12        -11.687033   1.000000
     13        -10.917447   1.000000
     14        -10.916924   1.000000
     15        -10.828325   1.000000
     16        -10.828264   1.000000
     17        -10.813940   1.000000
     18        -10.813890   1.000000
     19        -10.762999   1.000000
     20        -10.762973   1.000000
     21        -10.708310   1.000000
     22        -10.708067   1.000000
     23        -10.694112   1.000000
     24        -10.693985   1.000000
     25        -10.656852   1.000000
     26        -10.656817   1.000000
     27        -10.640934   1.000000
     28        -10.640878   1.000000
     29        -10.613723   1.000000
     30        -10.613657   1.000000
     31          0.980050   1.000000
     32          0.980151   1.000000
     33          1.789627   1.000000
     34          1.796351   1.000000
     35          2.934024   1.000000
     36          2.935646   1.000000
     37          4.363408   1.000000
     38          4.368964   1.000000
     39          6.093007   1.000000
     40          6.099979   1.000000
     41          6.357317   1.000000
     42          6.373004   1.000000
     43          6.706787   1.000000
     44          6.725619   1.000000
     45          7.069939   1.000000
     46          7.071925   1.000000
     47          7.314234   1.000000
     48          7.319394   1.000000
     49          7.969430   1.000000
     50          7.993656   1.000000
     51          8.381555   1.000000
     52          8.387749   1.000000
     53          8.473851   1.000000
     54          8.486860   1.000000
     55          8.609608   1.000000
     56          8.670947   1.000000
     57          8.735505   1.000000
     58          8.822988   1.000000
     59          8.959677   1.000000
     60          8.991700   1.000000
     61          9.012455   1.000000
     62          9.036888   1.000000
     63          9.294947   0.999999
     64          9.316066   0.999999
     65          9.369345   0.999992
     66          9.380644   0.999989
     67          9.581678   0.997593
     68          9.585527   0.997381
     69          9.609740   0.995613
     70          9.709944   0.972076
     71          9.950892   0.582564
     72         10.115015   0.170530
     73         10.240835   0.032756
     74         10.253939   0.026532
     75         10.996147   0.000000
     76         11.013533   0.000000
     77         12.863090   0.000000
     78         12.868504   0.000000
     79         14.126281   0.000000
     80         14.130575   0.000000
     81         14.648562   0.000000
     82         14.651855   0.000000
     83         15.547787   0.000000
     84         15.556767   0.000000
     85         15.671861   0.000000
     86         15.687934   0.000000
     87         17.598628   0.000000
     88         17.616584   0.000000

  0.3684211E+00  0.0000000E+00  0.5000000E+00  0.5555556E-02
      1        -11.934852   1.000000
      2        -11.934405   1.000000
      3        -11.805116   1.000000
      4        -11.805065   1.000000
      5        -11.776687   1.000000
      6        -11.776613   1.000000
      7        -11.764118   1.000000
      8        -11.763889   1.000000
      9        -11.696414   1.000000
     10        -11.696375   1.000000
     11        -11.687442   1.000000
     12        -11.687424   1.000000
     13        -10.916825   1.000000
     14        -10.916300   1.000000
     15        -10.828440   1.000000
     16        -10.828376   1.000000
     17        -10.811896   1.000000
     18        -10.811860   1.000000
     19        -10.768166   1.000000
     20        -10.768133   1.000000
     21        -10.707103   1.000000
     22        -10.706831   1.000000
     23        -10.691277   1.000000
     24        -10.691179   1.000000
     25        -10.657256   1.000000
     26        -10.657216   1.000000
     27        -10.639362   1.000000
     28        -10.639302   1.000000
     29        -10.614078   1.000000
     30        -10.614006   1.000000
     31          1.079024   1.000000
     32          1.079270   1.000000
     33          1.899562   1.000000
     34          1.906611   1.000000
     35          2.785751   1.000000
     36          2.787947   1.000000
     37          4.215497   1.000000
     38          4.220012   1.000000
     39          6.030350   1.000000
     40          6.037217   1.000000
     41          6.320238   1.000000
     42          6.338186   1.000000
     43          6.667597   1.000000
     44          6.686386   1.000000
     45          7.022669   1.000000
     46          7.025672   1.000000
     47          7.254980   1.000000
     48          7.262039   1.000000
     49          7.969020   1.000000
     50          7.994225   1.000000
     51          8.411927   1.000000
     52          8.414678   1.000000
     53          8.500396   1.000000
     54          8.514084   1.000000
     55          8.641112   1.000000
     56          8.707282   1.000000
     57          8.766773   1.000000
     58          8.859362   1.000000
     59          8.933340   1.000000
     60          8.991172   1.000000
     61          9.008841   1.000000
     62          9.014716   1.000000
     63          9.289972   0.999999
     64          9.307421   0.999999
     65          9.353724   0.999995
     66          9.363519   0.999994
     67          9.549852   0.998834
     68          9.555446   0.998671
     69          9.612264   0.995378
     70          9.716802   0.968820
     71          9.957763   0.563508
     72         10.123457   0.155825
     73         10.261932   0.023244
     74         10.275617   0.018413
     75         11.036616   0.000000
     76         11.056166   0.000000
     77         13.092385   0.000000
     78         13.096234   0.000000
     79         14.426894   0.000000
     80         14.430466   0.000000
     81         14.874778   0.000000
     82         14.876394   0.000000
     83         15.675305   0.000000
     84         15.685815   0.000000
     85         15.906705   0.000000
     86         15.922272   0.000000
     87         17.875349   0.000000
     88         17.910028   0.000000

  0.3947368E+00  0.0000000E+00  0.5000000E+00  0.5555556E-02
      1        -11.934631   1.000000
      2        -11.934182   1.000000
      3        -11.803362   1.000000
      4        -11.803324   1.000000
      5        -11.779362   1.000000
      6        -11.779273   1.000000
      7        -11.763736   1.000000
      8        -11.763506   1.000000
      9        -11.695490   1.000000
     10        -11.695451   1.000000
     11        -11.687887   1.000000
     12        -11.687868   1.000000
     13        -10.916243   1.000000
     14        -10.915716   1.000000
     15        -10.828430   1.000000
     16        -10.828362   1.000000
     17        -10.809540   1.000000
     18        -10.809510   1.000000
     19        -10.772862   1.000000
     20        -10.772817   1.000000
     21        -10.705950   1.000000
     22        -10.705656   1.000000
     23        -10.688693   1.000000
     24        -10.688617   1.000000
     25        -10.657591   1.000000
     26        -10.657547   1.000000
     27        -10.637907   1.000000
     28        -10.637844   1.000000
     29        -10.614472   1.000000
     30        -10.614396   1.000000
     31          1.178660   1.000000
     32          1.179305   1.000000
     33          2.006919   1.000000
     34          2.014357   1.000000
     35          2.644093   1.000000
     36          2.646901   1.000000
     37          4.072493   1.000000
     38          4.076059   1.000000
     39          5.978976   1.000000
     40          5.985754   1.000000
     41          6.294338   1.000000
     42          6.314263   1.000000
     43          6.635644   1.000000
     44          6.654469   1.000000
     45          6.983203   1.000000
     46          6.986951   1.000000
     47          7.204110   1.000000
     48          7.212965   1.000000
     49          7.968955   1.000000
     50          7.994916   1.000000
     51          8.440661   1.000000
     52          8.442490   1.000000
     53          8.522281   1.000000
     54          8.536661   1.000000
     55          8.667555   1.000000
     56          8.734711   1.000000
     57          8.796692   1.000000
     58          8.892848   1.000000
     59          8.912113   1.000000
     60          8.985487   1.000000
     61          8.993287   1.000000
     62          9.012565   1.000000
     63          9.283158   1.000000
     64          9.294525   0.999999
     65          9.340505   0.999997
     66          9.351262   0.999996
     67          9.517171   0.999472
     68          9.526119   0.999341
     69          9.614694   0.995141
     70          9.722294   0.965991
     71          9.962787   0.549480
     72         10.129679   0.145540
     73         10.278919   0.017384
     74         10.293095   0.013508
     75         11.070603   0.000000
     76         11.091783   0.000000
     77         13.326817   0.000000
     78         13.328864   0.000000
     79         14.735790   0.000000
     80         14.738710   0.000000
     81         15.104766   0.000000
     82         15.104975   0.000000
     83         15.698111   0.000000
     84         15.710380   0.000000
     85         16.159544   0.000000
     86         16.174295   0.000000
     87         17.613779   0.000000
     88         17.622664   0.000000

  0.4210526E+00  0.0000000E+00  0.5000000E+00  0.5555556E-02
      1        -11.934532   1.000000
      2        -11.934083   1.000000
      3        -11.801665   1.000000
      4        -11.801643   1.000000
      5        -11.781984   1.000000
      6        -11.781877   1.000000
      7        -11.763495   1.000000
      8        -11.763266   1.000000
      9        -11.694714   1.000000
     10        -11.694673   1.000000
     11        -11.688408   1.000000
     12        -11.688390   1.000000
     13        -10.915910   1.000000
     14        -10.915380   1.000000
     15        -10.828578   1.000000
     16        -10.828509   1.000000
     17        -10.807198   1.000000
     18        -10.807158   1.000000
     19        -10.777270   1.000000
     20        -10.777207   1.000000
     21        -10.705204   1.000000
     22        -10.704895   1.000000
     23        -10.686669   1.000000
     24        -10.686610   1.000000
     25        -10.658016   1.000000
     26        -10.657966   1.000000
     27        -10.636740   1.000000
     28        -10.636673   1.000000
     29        -10.615027   1.000000
     30        -10.614945   1.000000
     31          1.274667   1.000000
     32          1.275818   1.000000
     33          2.106006   1.000000
     34          2.113885   1.000000
     35          2.514280   1.000000
     36          2.517757   1.000000
     37          3.942878   1.000000
     38          3.945590   1.000000
     39          5.938976   1.000000
     40          5.945684   1.000000
     41          6.277014   1.000000
     42          6.298566   1.000000
     43          6.610969   1.000000
     44          6.629898   1.000000
     45          6.951995   1.000000
     46          6.956262   1.000000
     47          7.162858   1.000000
     48          7.173302   1.000000
     49          7.969060   1.000000
     50          7.995585   1.000000
     51          8.463916   1.000000
     52          8.471289   1.000000
     53          8.539978   1.000000
     54          8.555066   1.000000
     55          8.687851   1.000000
     56          8.749132   1.000000
     57          8.823130   1.000000
     58          8.895551   1.000000
     59          8.922623   1.000000
     60          8.972261   1.000000
     61          8.991994   1.000000
     62          9.012210   1.000000
     63          9.274446   1.000000
     64          9.279532   1.000000
     65          9.330574   0.999998
     66          9.343000   0.999997
     67          9.486909   0.999758
     68          9.499841   0.999660
     69          9.616525   0.994956
     70          9.726460   0.963707
     71          9.966311   0.539600
     72         10.134091   0.138529
     73         10.291887   0.013807
     74         10.306450   0.010563
     75         11.097417   0.000000
     76         11.119779   0.000000
     77         13.557148   0.000000
     78         13.557327   0.000000
     79         15.049456   0.000000
     80         15.051571   0.000000
     81         15.327056   0.000000
     82         15.329216   0.000000
     83         15.629129   0.000000
     84         15.642878   0.000000
     85         16.428402   0.000000
     86         16.442087   0.000000
     87         17.253895   0.000000
     88         17.261786   0.000000

  0.4473684E+00  0.0000000E+00  0.5000000E+00  0.5555556E-02
      1        -11.934445   1.000000
      2        -11.933996   1.000000
      3        -11.800078   1.000000
      4        -11.800072   1.000000
      5        -11.784244   1.000000
      6        -11.784115   1.000000
      7        -11.763317   1.000000
      8        -11.763088   1.000000
      9        -11.694003   1.000000
     10        -11.693959   1.000000
     11        -11.688908   1.000000
     12        -11.688892   1.000000
     13        -10.915638   1.000000
     14        -10.915107   1.000000
     15        -10.828701   1.000000
     16        -10.828630   1.000000
     17        -10.804900   1.000000
     18        -10.804835   1.000000
     19        -10.781063   1.000000
     20        -10.780976   1.000000
     21        -10.704645   1.000000
     22        -10.704325   1.000000
     23        -10.685131   1.000000
     24        -10.685083   1.000000
     25        -10.658353   1.000000
     26        -10.658297   1.000000
     27        -10.635855   1.000000
     28        -10.635786   1.000000
     29        -10.615426   1.000000
     30        -10.615340   1.000000
     31          1.359517   1.000000
     32          1.361266   1.000000
     33          2.188756   1.000000
     34          2.197089   1.000000
     35          2.404564   1.000000
     36          2.408753   1.000000
     37          3.836872   1.000000
     38          3.838851   1.000000
     39          5.910397   1.000000
     40          5.917052   1.000000
     41          6.266177   1.000000
     42          6.288946   1.000000
     43          6.593520   1.000000
     44          6.612584   1.000000
     45          6.929427   1.000000
     46          6.934026   1.000000
     47          7.132392   1.000000
     48          7.144098   1.000000
     49          7.969220   1.000000
     50          7.996137   1.000000
     51          8.482444   1.000000
     52          8.495607   1.000000
     53          8.553717   1.000000
     54          8.569751   1.000000
     55          8.701324   1.000000
     56          8.749584   1.000000
     57          8.843981   1.000000
     58          8.892782   1.000000
     59          8.929046   1.000000
     60          8.978068   1.000000
     61          8.991759   1.000000
     62          9.011964   1.000000
     63          9.262527   1.000000
     64          9.268610   1.000000
     65          9.323797   0.999998
     66          9.337081   0.999997
     67          9.462302   0.999876
     68          9.479004   0.999804
     69          9.617776   0.994825
     70          9.729381   0.962033
     71          9.968621   0.533112
     72         10.137013   0.134014
     73         10.301015   0.011686
     74         10.315854   0.008841
     75         11.116753   0.000000
     76         11.139913   0.000000
     77         13.764724   0.000000
     78         13.767418   0.000000
     79         15.356960   0.000000
     80         15.357467   0.000000
     81         15.459253   0.000000
     82         15.473199   0.000000
     83         15.587128   0.000000
     84         15.592050   0.000000
     85         16.702681   0.000000
     86         16.713428   0.000000
     87         16.907645   0.000000
     88         16.914110   0.000000

  0.4736842E+00  0.0000000E+00  0.5000000E+00  0.5555556E-02
      1        -11.934398   1.000000
      2        -11.933949   1.000000
      3        -11.798913   1.000000
      4        -11.798890   1.000000
      5        -11.785926   1.000000
      6        -11.785775   1.000000
      7        -11.763244   1.000000
      8        -11.763015   1.000000
      9        -11.693505   1.000000
     10        -11.693459   1.000000
     11        -11.689298   1.000000
     12        -11.689284   1.000000
     13        -10.915483   1.000000
     14        -10.914952   1.000000
     15        -10.828827   1.000000
     16        -10.828754   1.000000
     17        -10.803128   1.000000
     18        -10.803035   1.000000
     19        -10.783859   1.000000
     20        -10.783744   1.000000
     21        -10.704395   1.000000
     22        -10.704069   1.000000
     23        -10.684204   1.000000
     24        -10.684162   1.000000
     25        -10.658607   1.000000
     26        -10.658548   1.000000
     27        -10.635320   1.000000
     28        -10.635249   1.000000
     29        -10.615733   1.000000
     30        -10.615645   1.000000
     31          1.421004   1.000000
     32          1.423326   1.000000
     33          2.245017   1.000000
     34          2.253716   1.000000
     35          2.327724   1.000000
     36          2.332553   1.000000
     37          3.766086   1.000000
     38          3.767537   1.000000
     39          5.893246   1.000000
     40          5.899870   1.000000
     41          6.260287   1.000000
     42          6.283810   1.000000
     43          6.583148   1.000000
     44          6.602326   1.000000
     45          6.915768   1.000000
     46          6.920550   1.000000
     47          7.113675   1.000000
     48          7.126196   1.000000
     49          7.969344   1.000000
     50          7.996492   1.000000
     51          8.494344   1.000000
     52          8.511994   1.000000
     53          8.562925   1.000000
     54          8.580305   1.000000
     55          8.708070   1.000000
     56          8.743213   1.000000
     57          8.857392   1.000000
     58          8.894834   1.000000
     59          8.925139   1.000000
     60          8.990966   1.000000
     61          8.993169   1.000000
     62          9.011792   1.000000
     63          9.252067   1.000000
     64          9.262414   1.000000
     65          9.319747   0.999999
     66          9.332975   0.999998
     67          9.446261   0.999921
     68          9.465592   0.999864
     69          9.618490   0.994750
     70          9.731102   0.961017
     71          9.969902   0.529508
     72         10.138654   0.131523
     73         10.306439   0.010565
     74         10.321443   0.007938
     75         11.128366   0.000000
     76         11.151986   0.000000
     77         13.921161   0.000000
     78         13.926534   0.000000
     79         15.360909   0.000000
     80         15.380597   0.000000
     81         15.604628   0.000000
     82         15.607982   0.000000
     83         15.778786   0.000000
     84         15.780733   0.000000
     85         16.547691   0.000000
     86         16.557546   0.000000
     87         17.023766   0.000000
     88         17.034296   0.000000

  0.5000000E+00  0.0000000E+00  0.5000000E+00  0.5555556E-02
      1        -11.934373   1.000000
      2        -11.933924   1.000000
      3        -11.798421   1.000000
      4        -11.798388   1.000000
      5        -11.786561   1.000000
      6        -11.786399   1.000000
      7        -11.763202   1.000000
      8        -11.762973   1.000000
      9        -11.693300   1.000000
     10        -11.693253   1.000000
     11        -11.689449   1.000000
     12        -11.689436   1.000000
     13        -10.915418   1.000000
     14        -10.914887   1.000000
     15        -10.828834   1.000000
     16        -10.828761   1.000000
     17        -10.802382   1.000000
     18        -10.802274   1.000000
     19        -10.784907   1.000000
     20        -10.784777   1.000000
     21        -10.704275   1.000000
     22        -10.703947   1.000000
     23        -10.683883   1.000000
     24        -10.683841   1.000000
     25        -10.658669   1.000000
     26        -10.658608   1.000000
     27        -10.635119   1.000000
     28        -10.635048   1.000000
     29        -10.615827   1.000000
     30        -10.615738   1.000000
     31          1.444083   1.000000
     32          1.446661   1.000000
     33          2.265197   1.000000
     34          2.274043   1.000000
     35          2.299386   1.000000
     36          2.304491   1.000000
     37          3.741010   1.000000
     38          3.742263   1.000000
     39          5.887529   1.000000
     40          5.894143   1.000000
     41          6.258427   1.000000
     42          6.282205   1.000000
     43          6.579710   1.000000
     44          6.598933   1.000000
     45          6.911196   1.000000
     46          6.916036   1.000000
     47          7.107358   1.000000
     48          7.120163   1.000000
     49          7.969392   1.000000
     50          7.996617   1.000000
     51          8.498443   1.000000
     52          8.517759   1.000000
     53          8.566258   1.000000
     54          8.584445   1.000000
     55          8.709769   1.000000
     56          8.739797   1.000000
     57          8.862036   1.000000
     58          8.895985   1.000000
     59          8.923476   1.000000
     60          8.991367   1.000000
     61          8.998876   1.000000
     62          9.011724   1.000000
     63          9.248133   1.000000
     64          9.260213   1.000000
     65          9.318376   0.999999
     66          9.331420   0.999998
     67          9.440724   0.999932
     68          9.460975   0.999880
     69          9.618725   0.994725
     70          9.731673   0.960675
     71          9.970320   0.528333
     72         10.139190   0.130716
     73         10.308238   0.010215
     74         10.323297   0.007657
     75         11.132263   0.000000
     76         11.156033   0.000000
     77         13.982055   0.000000
     78         13.988754   0.000000
     79         15.311691   0.000000
     80         15.332688   0.000000
     81         15.689846   0.000000
     82         15.695316   0.000000
     83         15.939748   0.000000
     84         15.944362   0.000000
     85         16.348534   0.000000
     86         16.362620   0.000000
     87         17.286529   0.000000
     88         17.305335   0.000000

  0.5000000E+00  0.0000000E+00  0.5000000E+00  0.5555556E-02
      1        -11.934373   1.000000
      2        -11.933924   1.000000
      3        -11.798421   1.000000
      4        -11.798388   1.000000
      5        -11.786561   1.000000
      6        -11.786399   1.000000
      7        -11.763202   1.000000
      8        -11.762973   1.000000
      9        -11.693300   1.000000
     10        -11.693253   1.000000
     11        -11.689449   1.000000
     12        -11.689436   1.000000
     13        -10.915418   1.000000
     14        -10.914887   1.000000
     15        -10.828834   1.000000
     16        -10.828761   1.000000
     17        -10.802382   1.000000
     18        -10.802274   1.000000
     19        -10.784907   1.000000
     20        -10.784777   1.000000
     21        -10.704275   1.000000
     22        -10.703947   1.000000
     23        -10.683883   1.000000
     24        -10.683841   1.000000
     25        -10.658669   1.000000
     26        -10.658608   1.000000
     27        -10.635119   1.000000
     28        -10.635048   1.000000
     29        -10.615827   1.000000
     30        -10.615738   1.000000
     31          1.444083   1.000000
     32          1.446661   1.000000
     33          2.265197   1.000000
     34          2.274043   1.000000
     35          2.299386   1.000000
     36          2.304491   1.000000
     37          3.741010   1.000000
     38          3.742263   1.000000
     39          5.887529   1.000000
     40          5.894143   1.000000
     41          6.258427   1.000000
     42          6.282205   1.000000
     43          6.579710   1.000000
     44          6.598933   1.000000
     45          6.911196   1.000000
     46          6.916036   1.000000
     47          7.107358   1.000000
     48          7.120163   1.000000
     49          7.969392   1.000000
     50          7.996617   1.000000
     51          8.498443   1.000000
     52          8.517759   1.000000
     53          8.566258   1.000000
     54          8.584445   1.000000
     55          8.709769   1.000000
     56          8.739797   1.000000
     57          8.862036   1.000000
     58          8.895985   1.000000
     59          8.923476   1.000000
     60          8.991367   1.000000
     61          8.998876   1.000000
     62          9.011724   1.000000
     63          9.248133   1.000000
     64          9.260213   1.000000
     65          9.318376   0.999999
     66          9.331420   0.999998
     67          9.440724   0.999932
     68          9.460975   0.999880
     69          9.618725   0.994725
     70          9.731673   0.960675
     71          9.970320   0.528333
     72         10.139190   0.130716
     73         10.308238   0.010215
     74         10.323297   0.007657
     75         11.132263   0.000000
     76         11.156033   0.000000
     77         13.982055   0.000000
     78         13.988754   0.000000
     79         15.311691   0.000000
     80         15.332688   0.000000
     81         15.689846   0.000000
     82         15.695316   0.000000
     83         15.939748   0.000000
     84         15.944362   0.000000
     85         16.348534   0.000000
     86         16.362621   0.000000
     87         17.303479   0.000000
     88         17.308054   0.000000

  0.4912281E+00  0.1754386E-01  0.5000000E+00  0.5555556E-02
      1        -11.934360   1.000000
      2        -11.933911   1.000000
      3        -11.798358   1.000000
      4        -11.798325   1.000000
      5        -11.786576   1.000000
      6        -11.786414   1.000000
      7        -11.763174   1.000000
      8        -11.762945   1.000000
      9        -11.693292   1.000000
     10        -11.693244   1.000000
     11        -11.689437   1.000000
     12        -11.689424   1.000000
     13        -10.915390   1.000000
     14        -10.914858   1.000000
     15        -10.828810   1.000000
     16        -10.828737   1.000000
     17        -10.802282   1.000000
     18        -10.802174   1.000000
     19        -10.784931   1.000000
     20        -10.784802   1.000000
     21        -10.704171   1.000000
     22        -10.703843   1.000000
     23        -10.684005   1.000000
     24        -10.683965   1.000000
     25        -10.658518   1.000000
     26        -10.658457   1.000000
     27        -10.635131   1.000000
     28        -10.635060   1.000000
     29        -10.615772   1.000000
     30        -10.615684   1.000000
     31          1.445513   1.000000
     32          1.448091   1.000000
     33          2.266206   1.000000
     34          2.275039   1.000000
     35          2.298834   1.000000
     36          2.303932   1.000000
     37          3.742940   1.000000
     38          3.744196   1.000000
     39          5.870079   1.000000
     40          5.876076   1.000000
     41          6.242672   1.000000
     42          6.265479   1.000000
     43          6.594514   1.000000
     44          6.612871   1.000000
     45          6.926213   1.000000
     46          6.929463   1.000000
     47          7.108044   1.000000
     48          7.120808   1.000000
     49          7.969891   1.000000
     50          7.997038   1.000000
     51          8.497205   1.000000
     52          8.515884   1.000000
     53          8.561993   1.000000
     54          8.577423   1.000000
     55          8.715401   1.000000
     56          8.741349   1.000000
     57          8.864434   1.000000
     58          8.897372   1.000000
     59          8.923766   1.000000
     60          8.990806   1.000000
     61          9.001130   1.000000
     62          9.011801   1.000000
     63          9.248615   1.000000
     64          9.260510   1.000000
     65          9.318229   0.999999
     66          9.331098   0.999998
     67          9.440154   0.999933
     68          9.460070   0.999883
     69          9.617970   0.994805
     70          9.730584   0.961325
     71          9.968481   0.533505
     72         10.135554   0.136256
     73         10.313340   0.009275
     74         10.328135   0.006965
     75         11.142812   0.000000
     76         11.165347   0.000000
     77         13.975100   0.000000
     78         13.981702   0.000000
     79         15.275691   0.000000
     80         15.294687   0.000000
     81         15.717152   0.000000
     82         15.720765   0.000000
     83         15.931569   0.000000
     84         15.935523   0.000000
     85         16.319815   0.000000
     86         16.333462   0.000000
     87         17.309002   0.000000
     88         17.324384   0.000000

  0.4824561E+00  0.3508772E-01  0.5000000E+00  0.5555556E-02
      1        -11.934350   1.000000
      2        -11.933901   1.000000
      3        -11.798305   1.000000
      4        -11.798272   1.000000
      5        -11.786647   1.000000
      6        -11.786485   1.000000
      7        -11.763165   1.000000
      8        -11.762936   1.000000
      9        -11.693313   1.000000
     10        -11.693265   1.000000
     11        -11.689426   1.000000
     12        -11.689413   1.000000
     13        -10.915366   1.000000
     14        -10.914835   1.000000
     15        -10.828821   1.000000
     16        -10.828748   1.000000
     17        -10.802198   1.000000
     18        -10.802090   1.000000
     19        -10.785043   1.000000
     20        -10.784913   1.000000
     21        -10.704016   1.000000
     22        -10.703689   1.000000
     23        -10.684386   1.000000
     24        -10.684348   1.000000
     25        -10.658142   1.000000
     26        -10.658079   1.000000
     27        -10.635276   1.000000
     28        -10.635208   1.000000
     29        -10.615688   1.000000
     30        -10.615599   1.000000
     31          1.449787   1.000000
     32          1.452366   1.000000
     33          2.269203   1.000000
     34          2.277996   1.000000
     35          2.297163   1.000000
     36          2.302234   1.000000
     37          3.748726   1.000000
     38          3.749990   1.000000
     39          5.822653   1.000000
     40          5.827271   1.000000
     41          6.196451   1.000000
     42          6.216828   1.000000
     43          6.637224   1.000000
     44          6.653777   1.000000
     45          6.964985   1.000000
     46          6.965561   1.000000
     47          7.110229   1.000000
     48          7.122851   1.000000
     49          7.971368   1.000000
     50          7.998280   1.000000
     51          8.493275   1.000000
     52          8.509915   1.000000
     53          8.550225   1.000000
     54          8.560069   1.000000
     55          8.728342   1.000000
     56          8.745907   1.000000
     57          8.871404   1.000000
     58          8.901318   1.000000
     59          8.924868   1.000000
     60          8.990455   1.000000
     61          9.006513   1.000000
     62          9.012074   1.000000
     63          9.250016   1.000000
     64          9.261358   1.000000
     65          9.317802   0.999999
     66          9.330129   0.999998
     67          9.438436   0.999936
     68          9.457370   0.999891
     69          9.615736   0.995037
     70          9.727388   0.963182
     71          9.963105   0.548589
     72         10.125123   0.153026
     73         10.328468   0.006920
     74         10.342567   0.005217
     75         11.173835   0.000000
     76         11.192906   0.000000
     77         13.954527   0.000000
     78         13.960843   0.000000
     79         15.191413   0.000000
     80         15.207638   0.000000
     81         15.745198   0.000000
     82         15.747054   0.000000
     83         15.936717   0.000000
     84         15.938576   0.000000
     85         16.243408   0.000000
     86         16.256086   0.000000
     87         17.346219   0.000000
     88         17.361472   0.000000

  0.4736842E+00  0.5263158E-01  0.5000000E+00  0.5555556E-02
      1        -11.934332   1.000000
      2        -11.933884   1.000000
      3        -11.798217   1.000000
      4        -11.798185   1.000000
      5        -11.786764   1.000000
      6        -11.786602   1.000000
      7        -11.763149   1.000000
      8        -11.762920   1.000000
      9        -11.693348   1.000000
     10        -11.693301   1.000000
     11        -11.689406   1.000000
     12        -11.689393   1.000000
     13        -10.915326   1.000000
     14        -10.914795   1.000000
     15        -10.828840   1.000000
     16        -10.828767   1.000000
     17        -10.802058   1.000000
     18        -10.801949   1.000000
     19        -10.785225   1.000000
     20        -10.785095   1.000000
     21        -10.703762   1.000000
     22        -10.703437   1.000000
     23        -10.684986   1.000000
     24        -10.684952   1.000000
     25        -10.657553   1.000000
     26        -10.657487   1.000000
     27        -10.635505   1.000000
     28        -10.635439   1.000000
     29        -10.615554   1.000000
     30        -10.615466   1.000000
     31          1.456909   1.000000
     32          1.459489   1.000000
     33          2.274145   1.000000
     34          2.282824   1.000000
     35          2.294359   1.000000
     36          2.299343   1.000000
     37          3.758365   1.000000
     38          3.759643   1.000000
     39          5.755248   1.000000
     40          5.758429   1.000000
     41          6.125150   1.000000
     42          6.142664   1.000000
     43          6.701297   1.000000
     44          6.716093   1.000000
     45          7.012773   1.000000
     46          7.017872   1.000000
     47          7.114547   1.000000
     48          7.126831   1.000000
     49          7.973805   1.000000
     50          8.000321   1.000000
     51          8.485740   1.000000
     52          8.498302   1.000000
     53          8.533582   1.000000
     54          8.539539   1.000000
     55          8.739696   1.000000
     56          8.755440   1.000000
     57          8.882340   1.000000
     58          8.906955   1.000000
     59          8.927789   1.000000
     60          8.991241   1.000000
     61          9.011687   1.000000
     62          9.015000   1.000000
     63          9.252224   1.000000
     64          9.262654   1.000000
     65          9.317197   0.999999
     66          9.328592   0.999998
     67          9.435576   0.999941
     68          9.452927   0.999904
     69          9.612152   0.995389
     70          9.722311   0.965982
     71          9.954714   0.571985
     72         10.109237   0.181092
     73         10.353213   0.004190
     74         10.366378   0.003172
     75         11.224177   0.000000
     76         11.238178   0.000000
     77         13.921346   0.000000
     78         13.927209   0.000000
     79         15.087518   0.000000
     80         15.101977   0.000000
     81         15.699718   0.000000
     82         15.700564   0.000000
     83         16.005939   0.000000
     84         16.006267   0.000000
     85         16.138136   0.000000
     86         16.149744   0.000000
     87         17.399409   0.000000
     88         17.411821   0.000000

  0.4649123E+00  0.7017544E-01  0.5000000E+00  0.5555556E-02
      1        -11.934312   1.000000
      2        -11.933864   1.000000
      3        -11.798076   1.000000
      4        -11.798044   1.000000
      5        -11.786924   1.000000
      6        -11.786762   1.000000
      7        -11.763126   1.000000
      8        -11.762898   1.000000
      9        -11.693398   1.000000
     10        -11.693350   1.000000
     11        -11.689386   1.000000
     12        -11.689373   1.000000
     13        -10.915274   1.000000
     14        -10.914745   1.000000
     15        -10.828865   1.000000
     16        -10.828791   1.000000
     17        -10.801840   1.000000
     18        -10.801729   1.000000
     19        -10.785479   1.000000
     20        -10.785349   1.000000
     21        -10.703400   1.000000
     22        -10.703077   1.000000
     23        -10.685769   1.000000
     24        -10.685739   1.000000
     25        -10.656819   1.000000
     26        -10.656749   1.000000
     27        -10.635830   1.000000
     28        -10.635768   1.000000
     29        -10.615382   1.000000
     30        -10.615293   1.000000
     31          1.466873   1.000000
     32          1.469455   1.000000
     33          2.280885   1.000000
     34          2.288098   1.000000
     35          2.291653   1.000000
     36          2.295244   1.000000
     37          3.771846   1.000000
     38          3.773144   1.000000
     39          5.676560   1.000000
     40          5.678553   1.000000
     41          6.036368   1.000000
     42          6.051273   1.000000
     43          6.778365   1.000000
     44          6.791745   1.000000
     45          7.062320   1.000000
     46          7.071864   1.000000
     47          7.123792   1.000000
     48          7.135177   1.000000
     49          7.977173   1.000000
     50          8.003127   1.000000
     51          8.472359   1.000000
     52          8.478204   1.000000
     53          8.516335   1.000000
     54          8.522188   1.000000
     55          8.744187   1.000000
     56          8.770163   1.000000
     57          8.896281   1.000000
     58          8.912777   1.000000
     59          8.934499   1.000000
     60          8.993124   1.000000
     61          9.012413   1.000000
     62          9.024779   1.000000
     63          9.255017   1.000000
     64          9.264230   1.000000
     65          9.316551   0.999999
     66          9.326595   0.999998
     67          9.431582   0.999948
     68          9.446833   0.999919
     69          9.607386   0.995823
     70          9.715655   0.969385
     71          9.944019   0.601433
     72         10.089523   0.220113
     73         10.387106   0.002013
     74         10.399260   0.001528
     75         11.292204   0.000000
     76         11.300280   0.000000
     77         13.877066   0.000000
     78         13.882332   0.000000
     79         14.976404   0.000000
     80         14.989836   0.000000
     81         15.604031   0.000000
     82         15.604863   0.000000
     83         16.014596   0.000000
     84         16.025366   0.000000
     85         16.114282   0.000000
     86         16.115834   0.000000
     87         17.472117   0.000000
     88         17.482333   0.000000

  0.4561404E+00  0.8771930E-01  0.5000000E+00  0.5555556E-02
      1        -11.934282   1.000000
      2        -11.933835   1.000000
      3        -11.797934   1.000000
      4        -11.797903   1.000000
      5        -11.787122   1.000000
      6        -11.786960   1.000000
      7        -11.763099   1.000000
      8        -11.762871   1.000000
      9        -11.693456   1.000000
     10        -11.693408   1.000000
     11        -11.689350   1.000000
     12        -11.689337   1.000000
     13        -10.915207   1.000000
     14        -10.914679   1.000000
     15        -10.828898   1.000000
     16        -10.828824   1.000000
     17        -10.801585   1.000000
     18        -10.801474   1.000000
     19        -10.785793   1.000000
     20        -10.785662   1.000000
     21        -10.702998   1.000000
     22        -10.702678   1.000000
     23        -10.686676   1.000000
     24        -10.686649   1.000000
     25        -10.655943   1.000000
     26        -10.655865   1.000000
     27        -10.636139   1.000000
     28        -10.636082   1.000000
     29        -10.615171   1.000000
     30        -10.615082   1.000000
     31          1.479677   1.000000
     32          1.482261   1.000000
     33          2.283754   1.000000
     34          2.287285   1.000000
     35          2.291800   1.000000
     36          2.298892   1.000000
     37          3.789164   1.000000
     38          3.790488   1.000000
     39          5.592437   1.000000
     40          5.593525   1.000000
     41          5.936194   1.000000
     42          5.948945   1.000000
     43          6.862082   1.000000
     44          6.874363   1.000000
     45          7.097715   1.000000
     46          7.110073   1.000000
     47          7.148616   1.000000
     48          7.160201   1.000000
     49          7.981422   1.000000
     50          8.006636   1.000000
     51          8.449539   1.000000
     52          8.451430   1.000000
     53          8.502886   1.000000
     54          8.509120   1.000000
     55          8.744647   1.000000
     56          8.783968   1.000000
     57          8.911018   1.000000
     58          8.919835   1.000000
     59          8.945860   1.000000
     60          8.995754   1.000000
     61          9.013009   1.000000
     62          9.037154   1.000000
     63          9.258044   1.000000
     64          9.265939   1.000000
     65          9.316068   0.999999
     66          9.324406   0.999998
     67          9.426408   0.999955
     68          9.439138   0.999935
     69          9.601667   0.996295
     70          9.707779   0.973043
     71          9.931752   0.634501
     72         10.067506   0.268906
     73         10.429668   0.000744
     74         10.440831   0.000565
     75         11.376329   0.000000
     76         11.378295   0.000000
     77         13.823567   0.000000
     78         13.828125   0.000000
     79         14.862922   0.000000
     80         14.875758   0.000000
     81         15.485125   0.000000
     82         15.487540   0.000000
     83         15.888017   0.000000
     84         15.898336   0.000000
     85         16.231129   0.000000
     86         16.233535   0.000000
     87         17.562590   0.000000
     88         17.567404   0.000000

  0.4473684E+00  0.1052632E+00  0.5000000E+00  0.5555556E-02
      1        -11.934207   1.000000
      2        -11.933760   1.000000
      3        -11.797747   1.000000
      4        -11.797716   1.000000
      5        -11.787346   1.000000
      6        -11.787185   1.000000
      7        -11.763061   1.000000
      8        -11.762834   1.000000
      9        -11.693524   1.000000
     10        -11.693476   1.000000
     11        -11.689258   1.000000
     12        -11.689245   1.000000
     13        -10.915054   1.000000
     14        -10.914527   1.000000
     15        -10.828919   1.000000
     16        -10.828845   1.000000
     17        -10.801267   1.000000
     18        -10.801155   1.000000
     19        -10.786143   1.000000
     20        -10.786013   1.000000
     21        -10.702507   1.000000
     22        -10.702191   1.000000
     23        -10.687637   1.000000
     24        -10.687611   1.000000
     25        -10.655017   1.000000
     26        -10.654929   1.000000
     27        -10.636467   1.000000
     28        -10.636413   1.000000
     29        -10.614858   1.000000
     30        -10.614769   1.000000
     31          1.495314   1.000000
     32          1.497900   1.000000
     33          2.276448   1.000000
     34          2.281251   1.000000
     35          2.300775   1.000000
     36          2.309140   1.000000
     37          3.810303   1.000000
     38          3.811658   1.000000
     39          5.506607   1.000000
     40          5.507039   1.000000
     41          5.828681   1.000000
     42          5.839721   1.000000
     43          6.948379   1.000000
     44          6.959799   1.000000
     45          7.112577   1.000000
     46          7.125414   1.000000
     47          7.191056   1.000000
     48          7.207303   1.000000
     49          7.986491   1.000000
     50          8.010777   1.000000
     51          8.416689   1.000000
     52          8.423203   1.000000
     53          8.493059   1.000000
     54          8.498545   1.000000
     55          8.742280   1.000000
     56          8.793478   1.000000
     57          8.921286   1.000000
     58          8.934492   1.000000
     59          8.960578   1.000000
     60          8.998761   1.000000
     61          9.013795   1.000000
     62          9.051808   1.000000
     63          9.260764   1.000000
     64          9.267709   1.000000
     65          9.315861   0.999999
     66          9.322472   0.999998
     67          9.420165   0.999963
     68          9.430080   0.999950
     69          9.595193   0.996772
     70          9.698992   0.976686
     71          9.918643   0.668761
     72         10.044508   0.325092
     73         10.480388   0.000203
     74         10.490634   0.000154
     75         11.470886   0.000000
     76         11.474763   0.000000
     77         13.762910   0.000000
     78         13.766677   0.000000
     79         14.749253   0.000000
     80         14.761747   0.000000
     81         15.353974   0.000000
     82         15.357903   0.000000
     83         15.758831   0.000000
     84         15.768707   0.000000
     85         16.353346   0.000000
     86         16.356151   0.000000
     87         17.669412   0.000000
     88         17.674610   0.000000

  0.4385965E+00  0.1228070E+00  0.5000000E+00  0.5555556E-02
      1        -11.934167   1.000000
      2        -11.933721   1.000000
      3        -11.797534   1.000000
      4        -11.797503   1.000000
      5        -11.787614   1.000000
      6        -11.787454   1.000000
      7        -11.763025   1.000000
      8        -11.762798   1.000000
      9        -11.693605   1.000000
     10        -11.693557   1.000000
     11        -11.689216   1.000000
     12        -11.689204   1.000000
     13        -10.914964   1.000000
     14        -10.914439   1.000000
     15        -10.828960   1.000000
     16        -10.828885   1.000000
     17        -10.800900   1.000000
     18        -10.800786   1.000000
     19        -10.786576   1.000000
     20        -10.786445   1.000000
     21        -10.701971   1.000000
     22        -10.701661   1.000000
     23        -10.688694   1.000000
     24        -10.688665   1.000000
     25        -10.654098   1.000000
     26        -10.653999   1.000000
     27        -10.636782   1.000000
     28        -10.636730   1.000000
     29        -10.614636   1.000000
     30        -10.614548   1.000000
     31          1.513775   1.000000
     32          1.516364   1.000000
     33          2.267073   1.000000
     34          2.271907   1.000000
     35          2.312717   1.000000
     36          2.321058   1.000000
     37          3.835245   1.000000
     38          3.836638   1.000000
     39          5.421420   1.000000
     40          5.421639   1.000000
     41          5.716494   1.000000
     42          5.726197   1.000000
     43          7.034605   1.000000
     44          7.045306   1.000000
     45          7.121724   1.000000
     46          7.134320   1.000000
     47          7.236227   1.000000
     48          7.256818   1.000000
     49          7.992311   1.000000
     50          8.015470   1.000000
     51          8.381013   1.000000
     52          8.390902   1.000000
     53          8.485186   1.000000
     54          8.489366   1.000000
     55          8.737435   1.000000
     56          8.797242   1.000000
     57          8.931282   1.000000
     58          8.953184   1.000000
     59          8.977169   1.000000
     60          9.001902   1.000000
     61          9.015070   1.000000
     62          9.068491   1.000000
     63          9.262518   1.000000
     64          9.269477   1.000000
     65          9.315741   0.999999
     66          9.321465   0.999998
     67          9.412831   0.999970
     68          9.419780   0.999963
     69          9.588149   0.997227
     70          9.689564   0.980124
     71          9.905303   0.702227
     72         10.021555   0.385446
     73         10.538666   0.000039
     74         10.548088   0.000030
     75         11.577112   0.000000
     76         11.586243   0.000000
     77         13.697264   0.000000
     78         13.700183   0.000000
     79         14.636508   0.000000
     80         14.648822   0.000000
     81         15.215418   0.000000
     82         15.220739   0.000000
     83         15.630567   0.000000
     84         15.640116   0.000000
     85         16.476966   0.000000
     86         16.479983   0.000000
     87         17.788222   0.000000
     88         17.792390   0.000000

  0.4298246E+00  0.1403509E+00  0.5000000E+00  0.5555556E-02
      1        -11.934158   1.000000
      2        -11.933713   1.000000
      3        -11.797344   1.000000
      4        -11.797314   1.000000
      5        -11.787939   1.000000
      6        -11.787780   1.000000
      7        -11.763036   1.000000
      8        -11.762810   1.000000
      9        -11.693718   1.000000
     10        -11.693670   1.000000
     11        -11.689227   1.000000
     12        -11.689215   1.000000
     13        -10.914911   1.000000
     14        -10.914388   1.000000
     15        -10.829106   1.000000
     16        -10.829030   1.000000
     17        -10.800540   1.000000
     18        -10.800426   1.000000
     19        -10.787106   1.000000
     20        -10.786974   1.000000
     21        -10.701476   1.000000
     22        -10.701175   1.000000
     23        -10.689891   1.000000
     24        -10.689855   1.000000
     25        -10.653266   1.000000
     26        -10.653152   1.000000
     27        -10.637057   1.000000
     28        -10.637003   1.000000
     29        -10.614477   1.000000
     30        -10.614389   1.000000
     31          1.535048   1.000000
     32          1.537640   1.000000
     33          2.255449   1.000000
     34          2.260239   1.000000
     35          2.326170   1.000000
     36          2.334399   1.000000
     37          3.863970   1.000000
     38          3.865407   1.000000
     39          5.338573   1.000000
     40          5.339103   1.000000
     41          5.601563   1.000000
     42          5.610231   1.000000
     43          7.117415   1.000000
     44          7.125233   1.000000
     45          7.134686   1.000000
     46          7.143589   1.000000
     47          7.277883   1.000000
     48          7.302382   1.000000
     49          7.998797   1.000000
     50          8.020618   1.000000
     51          8.343604   1.000000
     52          8.355882   1.000000
     53          8.478504   1.000000
     54          8.481375   1.000000
     55          8.730367   1.000000
     56          8.795251   1.000000
     57          8.943751   1.000000
     58          8.971973   1.000000
     59          8.994097   1.000000
     60          9.005099   1.000000
     61          9.017894   1.000000
     62          9.086860   1.000000
     63          9.263111   1.000000
     64          9.270862   1.000000
     65          9.315579   0.999999
     66          9.321918   0.999998
     67          9.404465   0.999977
     68          9.408510   0.999974
     69          9.580691   0.997645
     70          9.679702   0.983251
     71          9.892241   0.733417
     72          9.999424   0.446417
     73         10.603752   0.000005
     74         10.612444   0.000004
     75         11.695914   0.000000
     76         11.709599   0.000000
     77         13.628759   0.000000
     78         13.630797   0.000000
     79         14.525323   0.000000
     80         14.537563   0.000000
     81         15.072117   0.000000
     82         15.078707   0.000000
     83         15.505022   0.000000
     84         15.514334   0.000000
     85         16.599996   0.000000
     86         16.603106   0.000000
     87         17.919569   0.000000
     88         17.923390   0.000000

  0.4210526E+00  0.1578947E+00  0.5000000E+00  0.5555556E-02
      1        -11.934141   1.000000
      2        -11.933698   1.000000
      3        -11.797107   1.000000
      4        -11.797077   1.000000
      5        -11.788248   1.000000
      6        -11.788092   1.000000
      7        -11.763016   1.000000
      8        -11.762791   1.000000
      9        -11.693849   1.000000
     10        -11.693801   1.000000
     11        -11.689193   1.000000
     12        -11.689181   1.000000
     13        -10.914850   1.000000
     14        -10.914328   1.000000
     15        -10.829214   1.000000
     16        -10.829138   1.000000
     17        -10.800080   1.000000
     18        -10.799966   1.000000
     19        -10.787640   1.000000
     20        -10.787507   1.000000
     21        -10.700942   1.000000
     22        -10.700653   1.000000
     23        -10.690977   1.000000
     24        -10.690927   1.000000
     25        -10.652540   1.000000
     26        -10.652411   1.000000
     27        -10.637235   1.000000
     28        -10.637176   1.000000
     29        -10.614293   1.000000
     30        -10.614205   1.000000
     31          1.559121   1.000000
     32          1.561718   1.000000
     33          2.241313   1.000000
     34          2.246033   1.000000
     35          2.340865   1.000000
     36          2.348946   1.000000
     37          3.896453   1.000000
     38          3.897940   1.000000
     39          5.259661   1.000000
     40          5.260461   1.000000
     41          5.485378   1.000000
     42          5.493254   1.000000
     43          7.137140   1.000000
     44          7.149525   1.000000
     45          7.202155   1.000000
     46          7.212021   1.000000
     47          7.314521   1.000000
     48          7.342557   1.000000
     49          8.005860   1.000000
     50          8.026122   1.000000
     51          8.304965   1.000000
     52          8.318976   1.000000
     53          8.472841   1.000000
     54          8.474673   1.000000
     55          8.721326   1.000000
     56          8.788463   1.000000
     57          8.957988   1.000000
     58          8.988662   1.000000
     59          9.005969   1.000000
     60          9.009769   1.000000
     61          9.026795   1.000000
     62          9.106587   1.000000
     63          9.262923   1.000000
     64          9.271199   1.000000
     65          9.315788   0.999999
     66          9.323281   0.999998
     67          9.395064   0.999983
     68          9.396925   0.999982
     69          9.572960   0.998017
     70          9.669573   0.986014
     71          9.879854   0.761388
     72          9.978676   0.504784
     73         10.674775   0.000000
     74         10.682815   0.000000
     75         11.826271   0.000000
     76         11.843782   0.000000
     77         13.559813   0.000000
     78         13.560959   0.000000
     79         14.416147   0.000000
     80         14.428388   0.000000
     81         14.926239   0.000000
     82         14.933999   0.000000
     83         15.383456   0.000000
     84         15.392598   0.000000
     85         16.721404   0.000000
     86         16.724518   0.000000
     87         18.061813   0.000000
     88         18.064827   0.000000

  0.4122807E+00  0.1754386E+00  0.5000000E+00  0.5555556E-02
      1        -11.934090   1.000000
      2        -11.933647   1.000000
      3        -11.796846   1.000000
      4        -11.796816   1.000000
      5        -11.788533   1.000000
      6        -11.788380   1.000000
      7        -11.762963   1.000000
      8        -11.762739   1.000000
      9        -11.693958   1.000000
     10        -11.693911   1.000000
     11        -11.689120   1.000000
     12        -11.689109   1.000000
     13        -10.914734   1.000000
     14        -10.914216   1.000000
     15        -10.829259   1.000000
     16        -10.829182   1.000000
     17        -10.799555   1.000000
     18        -10.799442   1.000000
     19        -10.788157   1.000000
     20        -10.788022   1.000000
     21        -10.700378   1.000000
     22        -10.700108   1.000000
     23        -10.691976   1.000000
     24        -10.691905   1.000000
     25        -10.651939   1.000000
     26        -10.651794   1.000000
     27        -10.637222   1.000000
     28        -10.637154   1.000000
     29        -10.614073   1.000000
     30        -10.613985   1.000000
     31          1.585985   1.000000
     32          1.588586   1.000000
     33          2.224370   1.000000
     34          2.229002   1.000000
     35          2.356533   1.000000
     36          2.364439   1.000000
     37          3.932668   1.000000
     38          3.934213   1.000000
     39          5.185722   1.000000
     40          5.186730   1.000000
     41          5.369178   1.000000
     42          5.376453   1.000000
     43          7.146425   1.000000
     44          7.158522   1.000000
     45          7.279450   1.000000
     46          7.289495   1.000000
     47          7.346286   1.000000
     48          7.377156   1.000000
     49          8.013390   1.000000
     50          8.031864   1.000000
     51          8.265371   1.000000
     52          8.280649   1.000000
     53          8.468264   1.000000
     54          8.469452   1.000000
     55          8.710525   1.000000
     56          8.778009   1.000000
     57          8.972650   1.000000
     58          9.000319   1.000000
     59          9.009161   1.000000
     60          9.017730   1.000000
     61          9.045327   1.000000
     62          9.127232   1.000000
     63          9.262536   1.000000
     64          9.270205   1.000000
     65          9.316440   0.999999
     66          9.324314   0.999998
     67          9.384416   0.999987
     68          9.386709   0.999987
     69          9.565056   0.998342
     70          9.659283   0.988410
     71          9.868452   0.785643
     72          9.959712   0.558075
     73         10.750541   0.000000
     74         10.757979   0.000000
     75         11.967168   0.000000
     76         11.987810   0.000000
     77         13.492634   0.000000
     78         13.492904   0.000000
     79         14.309256   0.000000
     80         14.321550   0.000000
     81         14.778796   0.000000
     82         14.787639   0.000000
     83         15.266684   0.000000
     84         15.275706   0.000000
     85         16.839949   0.000000
     86         16.843002   0.000000
     87         18.213050   0.000000
     88         18.215077   0.000000

  0.4035088E+00  0.1929825E+00  0.5000000E+00  0.5555556E-02
      1        -11.934029   1.000000
      2        -11.933587   1.000000
      3        -11.796533   1.000000
      4        -11.796500   1.000000
      5        -11.788793   1.000000
      6        -11.788644   1.000000
      7        -11.762880   1.000000
      8        -11.762656   1.000000
      9        -11.694046   1.000000
     10        -11.693998   1.000000
     11        -11.689084   1.000000
     12        -11.689073   1.000000
     13        -10.914607   1.000000
     14        -10.914091   1.000000
     15        -10.829245   1.000000
     16        -10.829167   1.000000
     17        -10.798906   1.000000
     18        -10.798795   1.000000
     19        -10.788713   1.000000
     20        -10.788576   1.000000
     21        -10.699830   1.000000
     22        -10.699589   1.000000
     23        -10.692869   1.000000
     24        -10.692765   1.000000
     25        -10.651450   1.000000
     26        -10.651292   1.000000
     27        -10.637011   1.000000
     28        -10.636934   1.000000
     29        -10.613866   1.000000
     30        -10.613778   1.000000
     31          1.615624   1.000000
     32          1.618229   1.000000
     33          2.204327   1.000000
     34          2.208856   1.000000
     35          2.372850   1.000000
     36          2.380558   1.000000
     37          3.972584   1.000000
     38          3.974193   1.000000
     39          5.117521   1.000000
     40          5.118698   1.000000
     41          5.254125   1.000000
     42          5.260940   1.000000
     43          7.156216   1.000000
     44          7.167989   1.000000
     45          7.347077   1.000000
     46          7.361236   1.000000
     47          7.378416   1.000000
     48          7.407568   1.000000
     49          8.021269   1.000000
     50          8.037724   1.000000
     51          8.225024   1.000000
     52          8.241219   1.000000
     53          8.464953   1.000000
     54          8.465891   1.000000
     55          8.698166   1.000000
     56          8.764817   1.000000
     57          8.986293   1.000000
     58          9.005687   1.000000
     59          9.011231   1.000000
     60          9.027065   1.000000
     61          9.068173   1.000000
     62          9.148276   1.000000
     63          9.262459   1.000000
     64          9.268175   1.000000
     65          9.316477   0.999999
     66          9.323312   0.999998
     67          9.375000   0.999991
     68          9.378209   0.999990
     69          9.557067   0.998620
     70          9.648908   0.990456
     71          9.858256   0.806067
     72          9.942786   0.604794
     73         10.829486   0.000000
     74         10.836334   0.000000
     75         12.117560   0.000000
     76         12.140709   0.000000
     77         13.429053   0.000000
     78         13.429643   0.000000
     79         14.204856   0.000000
     80         14.217239   0.000000
     81         14.630661   0.000000
     82         14.640512   0.000000
     83         15.155386   0.000000
     84         15.164325   0.000000
     85         16.954481   0.000000
     86         16.957415   0.000000
     87         18.372138   0.000000
     88         18.373659   0.000000

  0.3947368E+00  0.2105263E+00  0.5000000E+00  0.5555556E-02
      1        -11.933985   1.000000
      2        -11.933544   1.000000
      3        -11.796327   1.000000
      4        -11.796290   1.000000
      5        -11.789028   1.000000
      6        -11.788885   1.000000
      7        -11.762841   1.000000
      8        -11.762619   1.000000
      9        -11.694177   1.000000
     10        -11.694130   1.000000
     11        -11.689028   1.000000
     12        -11.689018   1.000000
     13        -10.914505   1.000000
     14        -10.913992   1.000000
     15        -10.829300   1.000000
     16        -10.829221   1.000000
     17        -10.798320   1.000000
     18        -10.798214   1.000000
     19        -10.789277   1.000000
     20        -10.789137   1.000000
     21        -10.699501   1.000000
     22        -10.699299   1.000000
     23        -10.693632   1.000000
     24        -10.693485   1.000000
     25        -10.651234   1.000000
     26        -10.651067   1.000000
     27        -10.636651   1.000000
     28        -10.636567   1.000000
     29        -10.613744   1.000000
     30        -10.613655   1.000000
     31          1.648009   1.000000
     32          1.650620   1.000000
     33          2.180918   1.000000
     34          2.185331   1.000000
     35          2.389442   1.000000
     36          2.396928   1.000000
     37          4.016163   1.000000
     38          4.017843   1.000000
     39          5.055385   1.000000
     40          5.056752   1.000000
     41          5.141590   1.000000
     42          5.147996   1.000000
     43          7.166704   1.000000
     44          7.178130   1.000000
     45          7.381030   1.000000
     46          7.414140   1.000000
     47          7.434057   1.000000
     48          7.447135   1.000000
     49          8.029357   1.000000
     50          8.043561   1.000000
     51          8.184106   1.000000
     52          8.200936   1.000000
     53          8.463088   1.000000
     54          8.464098   1.000000
     55          8.684430   1.000000
     56          8.749544   1.000000
     57          8.997031   1.000000
     58          9.007395   1.000000
     59          9.014267   1.000000
     60          9.035508   1.000000
     61          9.092563   1.000000
     62          9.168890   1.000000
     63          9.262801   1.000000
     64          9.265924   1.000000
     65          9.313443   0.999999
     66          9.319169   0.999999
     67          9.369540   0.999992
     68          9.372625   0.999991
     69          9.549055   0.998855
     70          9.638483   0.992187
     71          9.849340   0.822917
     72          9.927991   0.644455
     73         10.909669   0.000000
     74         10.915897   0.000000
     75         12.276352   0.000000
     76         12.301470   0.000000
     77         13.372007   0.000000
     78         13.373380   0.000000
     79         14.103100   0.000000
     80         14.115596   0.000000
     81         14.482417   0.000000
     82         14.493219   0.000000
     83         15.050187   0.000000
     84         15.059070   0.000000
     85         17.063733   0.000000
     86         17.066501   0.000000
     87         18.537862   0.000000
     88         18.538608   0.000000

  0.3859649E+00  0.2280702E+00  0.5000000E+00  0.5555556E-02
      1        -11.933956   1.000000
      2        -11.933516   1.000000
      3        -11.796222   1.000000
      4        -11.796178   1.000000
      5        -11.789208   1.000000
      6        -11.789074   1.000000
      7        -11.762833   1.000000
      8        -11.762611   1.000000
      9        -11.694337   1.000000
     10        -11.694289   1.000000
     11        -11.688978   1.000000
     12        -11.688968   1.000000
     13        -10.914431   1.000000
     14        -10.913920   1.000000
     15        -10.829386   1.000000
     16        -10.829307   1.000000
     17        -10.797795   1.000000
     18        -10.797696   1.000000
     19        -10.789838   1.000000
     20        -10.789694   1.000000
     21        -10.699416   1.000000
     22        -10.699263   1.000000
     23        -10.694222   1.000000
     24        -10.694021   1.000000
     25        -10.651213   1.000000
     26        -10.651040   1.000000
     27        -10.636159   1.000000
     28        -10.636071   1.000000
     29        -10.613662   1.000000
     30        -10.613574   1.000000
     31          1.683119   1.000000
     32          1.685736   1.000000
     33          2.153908   1.000000
     34          2.158193   1.000000
     35          2.405865   1.000000
     36          2.413106   1.000000
     37          4.063362   1.000000
     38          4.065122   1.000000
     39          4.996956   1.000000
     40          4.999127   1.000000
     41          5.035492   1.000000
     42          5.040884   1.000000
     43          7.177933   1.000000
     44          7.188982   1.000000
     45          7.396553   1.000000
     46          7.436304   1.000000
     47          7.498345   1.000000
     48          7.507590   1.000000
     49          8.037493   1.000000
     50          8.049196   1.000000
     51          8.142850   1.000000
     52          8.160042   1.000000
     53          8.462804   1.000000
     54          8.464237   1.000000
     55          8.669498   1.000000
     56          8.732669   1.000000
     57          9.002593   1.000000
     58          9.007378   1.000000
     59          9.019587   1.000000
     60          9.041159   1.000000
     61          9.117301   1.000000
     62          9.187590   1.000000
     63          9.261768   1.000000
     64          9.265701   1.000000
     65          9.305190   0.999999
     66          9.314070   0.999999
     67          9.368363   0.999992
     68          9.371706   0.999992
     69          9.541092   0.999052
     70          9.628040   0.993637
     71          9.841780   0.836456
     72          9.915373   0.677103
     73         10.988658   0.000000
     74         10.994186   0.000000
     75         12.442162   0.000000
     76         12.468792   0.000000
     77         13.324586   0.000000
     78         13.326644   0.000000
     79         14.004138   0.000000
     80         14.016759   0.000000
     81         14.334494   0.000000
     82         14.346197   0.000000
     83         14.951735   0.000000
     84         14.960580   0.000000
     85         17.166380   0.000000
     86         17.168935   0.000000
     87         18.708705   0.000000
     88         18.710562   0.000000

  0.3771930E+00  0.2456140E+00  0.5000000E+00  0.5555556E-02
      1        -11.933927   1.000000
      2        -11.933489   1.000000
      3        -11.796221   1.000000
      4        -11.796166   1.000000
      5        -11.789272   1.000000
      6        -11.789148   1.000000
      7        -11.762827   1.000000
      8        -11.762605   1.000000
      9        -11.694504   1.000000
     10        -11.694456   1.000000
     11        -11.688925   1.000000
     12        -11.688916   1.000000
     13        -10.914362   1.000000
     14        -10.913854   1.000000
     15        -10.829461   1.000000
     16        -10.829382   1.000000
     17        -10.797330   1.000000
     18        -10.797244   1.000000
     19        -10.790280   1.000000
     20        -10.790130   1.000000
     21        -10.699530   1.000000
     22        -10.699426   1.000000
     23        -10.694633   1.000000
     24        -10.694378   1.000000
     25        -10.651347   1.000000
     26        -10.651173   1.000000
     27        -10.635502   1.000000
     28        -10.635413   1.000000
     29        -10.613654   1.000000
     30        -10.613565   1.000000
     31          1.720920   1.000000
     32          1.723544   1.000000
     33          2.123138   1.000000
     34          2.127285   1.000000
     35          2.421591   1.000000
     36          2.428565   1.000000
     37          4.114128   1.000000
     38          4.115975   1.000000
     39          4.915712   1.000000
     40          4.921527   1.000000
     41          4.963693   1.000000
     42          4.965408   1.000000
     43          7.189914   1.000000
     44          7.200554   1.000000
     45          7.405407   1.000000
     46          7.448212   1.000000
     47          7.560070   1.000000
     48          7.568537   1.000000
     49          8.045365   1.000000
     50          8.054093   1.000000
     51          8.101865   1.000000
     52          8.118903   1.000000
     53          8.464207   1.000000
     54          8.466441   1.000000
     55          8.653542   1.000000
     56          8.714548   1.000000
     57          9.003539   1.000000
     58          9.006239   1.000000
     59          9.025656   1.000000
     60          9.043402   1.000000
     61          9.141164   1.000000
     62          9.201257   1.000000
     63          9.259130   1.000000
     64          9.267487   1.000000
     65          9.295380   0.999999
     66          9.310938   0.999999
     67          9.370515   0.999992
     68          9.374688   0.999991
     69          9.533267   0.999215
     70          9.617609   0.994843
     71          9.835545   0.847102
     72          9.904861   0.703310
     73         11.063629   0.000000
     74         11.068326   0.000000
     75         12.613814   0.000000
     76         12.641582   0.000000
     77         13.289865   0.000000
     78         13.292464   0.000000
     79         13.908155   0.000000
     80         13.920896   0.000000
     81         14.187453   0.000000
     82         14.200014   0.000000
     83         14.860905   0.000000
     84         14.869729   0.000000
     85         17.260819   0.000000
     86         17.263112   0.000000
     87         18.883031   0.000000
     88         18.892697   0.000000

  0.3684211E+00  0.2631579E+00  0.5000000E+00  0.5555556E-02
      1        -11.933879   1.000000
      2        -11.933442   1.000000
      3        -11.796271   1.000000
      4        -11.796206   1.000000
      5        -11.789154   1.000000
      6        -11.789042   1.000000
      7        -11.762776   1.000000
      8        -11.762556   1.000000
      9        -11.694671   1.000000
     10        -11.694623   1.000000
     11        -11.688833   1.000000
     12        -11.688825   1.000000
     13        -10.914265   1.000000
     14        -10.913761   1.000000
     15        -10.829466   1.000000
     16        -10.829386   1.000000
     17        -10.796916   1.000000
     18        -10.796844   1.000000
     19        -10.790495   1.000000
     20        -10.790337   1.000000
     21        -10.699791   1.000000
     22        -10.699723   1.000000
     23        -10.694746   1.000000
     24        -10.694447   1.000000
     25        -10.651541   1.000000
     26        -10.651368   1.000000
     27        -10.634709   1.000000
     28        -10.634620   1.000000
     29        -10.613606   1.000000
     30        -10.613517   1.000000
     31          1.761378   1.000000
     32          1.764009   1.000000
     33          2.088525   1.000000
     34          2.092525   1.000000
     35          2.436025   1.000000
     36          2.442712   1.000000
     37          4.168398   1.000000
     38          4.170339   1.000000
     39          4.816697   1.000000
     40          4.822958   1.000000
     41          4.922523   1.000000
     42          4.923842   1.000000
     43          7.202632   1.000000
     44          7.212830   1.000000
     45          7.409206   1.000000
     46          7.454353   1.000000
     47          7.617950   1.000000
     48          7.626063   1.000000
     49          8.049168   1.000000
     50          8.052369   1.000000
     51          8.069140   1.000000
     52          8.079416   1.000000
     53          8.467390   1.000000
     54          8.470736   1.000000
     55          8.636742   1.000000
     56          8.695462   1.000000
     57          9.001741   1.000000
     58          9.003853   1.000000
     59          9.029805   1.000000
     60          9.042218   1.000000
     61          9.161880   1.000000
     62          9.204900   1.000000
     63          9.255748   1.000000
     64          9.271248   1.000000
     65          9.289352   0.999999
     66          9.314181   0.999999
     67          9.374977   0.999991
     68          9.379818   0.999989
     69          9.525667   0.999348
     70          9.607211   0.995838
     71          9.830612   0.855193
     72          9.896368   0.723745
     73         11.131398   0.000000
     74         11.135084   0.000000
     75         12.789276   0.000000
     76         12.817862   0.000000
     77         13.270943   0.000000
     78         13.273886   0.000000
     79         13.815434   0.000000
     80         13.828263   0.000000
     81         14.041611   0.000000
     82         14.054991   0.000000
     83         14.778893   0.000000
     84         14.787707   0.000000
     85         17.345108   0.000000
     86         17.347092   0.000000
     87         19.059472   0.000000
     88         19.060497   0.000000

  0.3596491E+00  0.2807018E+00  0.5000000E+00  0.5555556E-02
      1        -11.933876   1.000000
      2        -11.933440   1.000000
      3        -11.796477   1.000000
      4        -11.796399   1.000000
      5        -11.788904   1.000000
      6        -11.788805   1.000000
      7        -11.762763   1.000000
      8        -11.762543   1.000000
      9        -11.694854   1.000000
     10        -11.694807   1.000000
     11        -11.688790   1.000000
     12        -11.688782   1.000000
     13        -10.914244   1.000000
     14        -10.913743   1.000000
     15        -10.829531   1.000000
     16        -10.829451   1.000000
     17        -10.796786   1.000000
     18        -10.796724   1.000000
     19        -10.790447   1.000000
     20        -10.790280   1.000000
     21        -10.700222   1.000000
     22        -10.700174   1.000000
     23        -10.694820   1.000000
     24        -10.694494   1.000000
     25        -10.651852   1.000000
     26        -10.651683   1.000000
     27        -10.633909   1.000000
     28        -10.633823   1.000000
     29        -10.613648   1.000000
     30        -10.613559   1.000000
     31          1.804427   1.000000
     32          1.807066   1.000000
     33          2.050080   1.000000
     34          2.053924   1.000000
     35          2.448461   1.000000
     36          2.454843   1.000000
     37          4.226073   1.000000
     38          4.228116   1.000000
     39          4.721151   1.000000
     40          4.727486   1.000000
     41          4.892054   1.000000
     42          4.893325   1.000000
     43          7.216069   1.000000
     44          7.225789   1.000000
     45          7.408661   1.000000
     46          7.455742   1.000000
     47          7.671794   1.000000
     48          7.679692   1.000000
     49          8.013755   1.000000
     50          8.030700   1.000000
     51          8.065935   1.000000
     52          8.069030   1.000000
     53          8.472403   1.000000
     54          8.477073   1.000000
     55          8.619255   1.000000
     56          8.675624   1.000000
     57          8.997476   1.000000
     58          9.000038   1.000000
     59          9.030787   1.000000
     60          9.037956   1.000000
     61          9.173693   1.000000
     62          9.198119   1.000000
     63          9.253545   1.000000
     64          9.277987   1.000000
     65          9.291067   0.999999
     66          9.325257   0.999998
     67          9.380747   0.999989
     68          9.386172   0.999987
     69          9.518405   0.999456
     70          9.596869   0.996654
     71          9.826783   0.861269
     72          9.889630   0.739449
     73         11.188720   0.000000
     74         11.191176   0.000000
     75         12.965805   0.000000
     76         12.994874   0.000000
     77         13.270601   0.000000
     78         13.273645   0.000000
     79         13.726461   0.000000
     80         13.739289   0.000000
     81         13.897418   0.000000
     82         13.911566   0.000000
     83         14.707490   0.000000
     84         14.716310   0.000000
     85         17.416797   0.000000
     86         17.418420   0.000000
     87         19.234677   0.000000
     88         19.236688   0.000000

  0.3508772E+00  0.2982456E+00  0.5000000E+00  0.5555556E-02
      1        -11.933872   1.000000
      2        -11.933437   1.000000
      3        -11.796824   1.000000
      4        -11.796734   1.000000
      5        -11.788463   1.000000
      6        -11.788376   1.000000
      7        -11.762767   1.000000
      8        -11.762548   1.000000
      9        -11.695039   1.000000
     10        -11.694992   1.000000
     11        -11.688772   1.000000
     12        -11.688765   1.000000
     13        -10.914212   1.000000
     14        -10.913713   1.000000
     15        -10.829627   1.000000
     16        -10.829547   1.000000
     17        -10.796999   1.000000
     18        -10.796935   1.000000
     19        -10.789981   1.000000
     20        -10.789808   1.000000
     21        -10.700751   1.000000
     22        -10.700712   1.000000
     23        -10.694876   1.000000
     24        -10.694533   1.000000
     25        -10.652208   1.000000
     26        -10.652043   1.000000
     27        -10.633063   1.000000
     28        -10.632980   1.000000
     29        -10.613712   1.000000
     30        -10.613623   1.000000
     31          1.849926   1.000000
     32          1.852572   1.000000
     33          2.007988   1.000000
     34          2.011672   1.000000
     35          2.458110   1.000000
     36          2.464174   1.000000
     37          4.286979   1.000000
     38          4.289126   1.000000
     39          4.632070   1.000000
     40          4.638467   1.000000
     41          4.870529   1.000000
     42          4.871773   1.000000
     43          7.230187   1.000000
     44          7.239396   1.000000
     45          7.404342   1.000000
     46          7.453000   1.000000
     47          7.721580   1.000000
     48          7.729316   1.000000
     49          7.972437   1.000000
     50          7.990089   1.000000
     51          8.072522   1.000000
     52          8.073599   1.000000
     53          8.479231   1.000000
     54          8.485323   1.000000
     55          8.601317   1.000000
     56          8.655260   1.000000
     57          8.990326   1.000000
     58          8.994413   1.000000
     59          9.027937   1.000000
     60          9.031345   1.000000
     61          9.167300   1.000000
     62          9.189538   1.000000
     63          9.258091   1.000000
     64          9.286363   1.000000
     65          9.300666   0.999999
     66          9.342094   0.999997
     67          9.387195   0.999986
     68          9.393351   0.999983
     69          9.511635   0.999541
     70          9.586607   0.997318
     71          9.823955   0.865644
     72          9.884465   0.751167
     73         11.232740   0.000000
     74         11.233757   0.000000
     75         13.138657   0.000000
     76         13.167361   0.000000
     77         13.291159   0.000000
     78         13.294200   0.000000
     79         13.642600   0.000000
     80         13.655170   0.000000
     81         13.755814   0.000000
     82         13.770609   0.000000
     83         14.649617   0.000000
     84         14.658485   0.000000
     85         17.472817   0.000000
     86         17.474023   0.000000
     87         19.403315   0.000000
     88         19.430399   0.000000

  0.3421053E+00  0.3157895E+00  0.5000000E+00  0.5555556E-02
      1        -11.933861   1.000000
      2        -11.933428   1.000000
      3        -11.797273   1.000000
      4        -11.797174   1.000000
      5        -11.787897   1.000000
      6        -11.787821   1.000000
      7        -11.762765   1.000000
      8        -11.762546   1.000000
      9        -11.695253   1.000000
     10        -11.695206   1.000000
     11        -11.688690   1.000000
     12        -11.688684   1.000000
     13        -10.914187   1.000000
     14        -10.913692   1.000000
     15        -10.829668   1.000000
     16        -10.829588   1.000000
     17        -10.797481   1.000000
     18        -10.797407   1.000000
     19        -10.789196   1.000000
     20        -10.789019   1.000000
     21        -10.701263   1.000000
     22        -10.701228   1.000000
     23        -10.694942   1.000000
     24        -10.694592   1.000000
     25        -10.652587   1.000000
     26        -10.652428   1.000000
     27        -10.632224   1.000000
     28        -10.632144   1.000000
     29        -10.613775   1.000000
     30        -10.613687   1.000000
     31          1.897042   1.000000
     32          1.899664   1.000000
     33          1.963228   1.000000
     34          1.966710   1.000000
     35          2.464126   1.000000
     36          2.469862   1.000000
     37          4.350596   1.000000
     38          4.352817   1.000000
     39          4.551293   1.000000
     40          4.557718   1.000000
     41          4.857642   1.000000
     42          4.858861   1.000000
     43          7.244921   1.000000
     44          7.253587   1.000000
     45          7.396823   1.000000
     46          7.446685   1.000000
     47          7.767174   1.000000
     48          7.774698   1.000000
     49          7.931248   1.000000
     50          7.948675   1.000000
     51          8.078630   1.000000
     52          8.080126   1.000000
     53          8.487765   1.000000
     54          8.495199   1.000000
     55          8.583251   1.000000
     56          8.634587   1.000000
     57          8.979884   1.000000
     58          8.986165   1.000000
     59          9.020431   1.000000
     60          9.023699   1.000000
     61          9.148885   1.000000
     62          9.179267   1.000000
     63          9.268958   1.000000
     64          9.297403   0.999999
     65          9.315002   0.999999
     66          9.362036   0.999994
     67          9.394086   0.999983
     68          9.401210   0.999979
     69          9.505639   0.999606
     70          9.576518   0.997853
     71          9.821956   0.868680
     72          9.880620   0.759705
     73         11.260815   0.000000
     74         11.261650   0.000000
     75         13.290013   0.000000
     76         13.304464   0.000000
     77         13.340112   0.000000
     78         13.354489   0.000000
     79         13.567995   0.000000
     80         13.579483   0.000000
     81         13.620512   0.000000
     82         13.635221   0.000000
     83         14.610133   0.000000
     84         14.619167   0.000000
     85         17.509564   0.000000
     86         17.510299   0.000000
     87         19.547894   0.000000
     88         19.579689   0.000000

  0.3333333E+00  0.3333333E+00  0.5000000E+00  0.5555556E-02
      1        -11.933800   1.000000
      2        -11.933368   1.000000
      3        -11.797790   1.000000
      4        -11.797684   1.000000
      5        -11.787187   1.000000
      6        -11.787119   1.000000
      7        -11.762729   1.000000
      8        -11.762511   1.000000
      9        -11.695448   1.000000
     10        -11.695402   1.000000
     11        -11.688547   1.000000
     12        -11.688542   1.000000
     13        -10.914101   1.000000
     14        -10.913608   1.000000
     15        -10.829577   1.000000
     16        -10.829498   1.000000
     17        -10.798129   1.000000
     18        -10.798047   1.000000
     19        -10.788108   1.000000
     20        -10.787932   1.000000
     21        -10.701673   1.000000
     22        -10.701641   1.000000
     23        -10.695042   1.000000
     24        -10.694691   1.000000
     25        -10.652912   1.000000
     26        -10.652759   1.000000
     27        -10.631355   1.000000
     28        -10.631278   1.000000
     29        -10.613800   1.000000
     30        -10.613712   1.000000
     31          1.908262   1.000000
     32          1.911323   1.000000
     33          1.953644   1.000000
     34          1.956150   1.000000
     35          2.465614   1.000000
     36          2.471023   1.000000
     37          4.412977   1.000000
     38          4.414745   1.000000
     39          4.484473   1.000000
     40          4.490147   1.000000
     41          4.853204   1.000000
     42          4.854401   1.000000
     43          7.260146   1.000000
     44          7.268255   1.000000
     45          7.386725   1.000000
     46          7.437335   1.000000
     47          7.807482   1.000000
     48          7.814226   1.000000
     49          7.892600   1.000000
     50          7.908676   1.000000
     51          8.083799   1.000000
     52          8.087801   1.000000
     53          8.497679   1.000000
     54          8.506010   1.000000
     55          8.565817   1.000000
     56          8.613904   1.000000
     57          8.965720   1.000000
     58          8.974432   1.000000
     59          9.009376   1.000000
     60          9.014201   1.000000
     61          9.128366   1.000000
     62          9.167042   1.000000
     63          9.281112   1.000000
     64          9.310579   0.999999
     65          9.332977   0.999998
     66          9.382590   0.999988
     67          9.401660   0.999979
     68          9.409749   0.999973
     69          9.500834   0.999652
     70          9.566677   0.998279
     71          9.820630   0.870667
     72          9.877866   0.765722
     73         11.271875   0.000000
     74         11.274537   0.000000
     75         13.342968   0.000000
     76         13.347407   0.000000
     77         13.430182   0.000000
     78         13.438848   0.000000
     79         13.522112   0.000000
     80         13.528708   0.000000
     81         13.539017   0.000000
     82         13.545786   0.000000
     83         14.596772   0.000000
     84         14.606258   0.000000
     85         17.522838   0.000000
     86         17.523057   0.000000
     87         19.615630   0.000000
     88         19.645377   0.000000

  0.3333333E+00  0.3333333E+00  0.5000000E+00  0.5555556E-02
      1        -11.933800   1.000000
      2        -11.933368   1.000000
      3        -11.797790   1.000000
      4        -11.797684   1.000000
      5        -11.787187   1.000000
      6        -11.787119   1.000000
      7        -11.762729   1.000000
      8        -11.762511   1.000000
      9        -11.695448   1.000000
     10        -11.695402   1.000000
     11        -11.688547   1.000000
     12        -11.688542   1.000000
     13        -10.914101   1.000000
     14        -10.913608   1.000000
     15        -10.829577   1.000000
     16        -10.829498   1.000000
     17        -10.798129   1.000000
     18        -10.798047   1.000000
     19        -10.788108   1.000000
     20        -10.787932   1.000000
     21        -10.701673   1.000000
     22        -10.701641   1.000000
     23        -10.695042   1.000000
     24        -10.694691   1.000000
     25        -10.652912   1.000000
     26        -10.652759   1.000000
     27        -10.631355   1.000000
     28        -10.631278   1.000000
     29        -10.613800   1.000000
     30        -10.613712   1.000000
     31          1.908262   1.000000
     32          1.911323   1.000000
     33          1.953644   1.000000
     34          1.956150   1.000000
     35          2.465614   1.000000
     36          2.471023   1.000000
     37          4.412977   1.000000
     38          4.414745   1.000000
     39          4.484473   1.000000
     40          4.490147   1.000000
     41          4.853204   1.000000
     42          4.854401   1.000000
     43          7.260146   1.000000
     44          7.268255   1.000000
     45          7.386725   1.000000
     46          7.437335   1.000000
     47          7.807482   1.000000
     48          7.814226   1.000000
     49          7.892600   1.000000
     50          7.908676   1.000000
     51          8.083799   1.000000
     52          8.087801   1.000000
     53          8.497679   1.000000
     54          8.506010   1.000000
     55          8.565817   1.000000
     56          8.613904   1.000000
     57          8.965720   1.000000
     58          8.974432   1.000000
     59          9.009376   1.000000
     60          9.014201   1.000000
     61          9.128366   1.000000
     62          9.167042   1.000000
     63          9.281112   1.000000
     64          9.310579   0.999999
     65          9.332977   0.999998
     66          9.382590   0.999988
     67          9.401660   0.999979
     68          9.409749   0.999973
     69          9.500834   0.999652
     70          9.566677   0.998279
     71          9.820630   0.870667
     72          9.877866   0.765722
     73         11.271875   0.000000
     74         11.274537   0.000000
     75         13.342968   0.000000
     76         13.347407   0.000000
     77         13.430182   0.000000
     78         13.438848   0.000000
     79         13.522112   0.000000
     80         13.528708   0.000000
     81         13.539017   0.000000
     82         13.545786   0.000000
     83         14.596772   0.000000
     84         14.606258   0.000000
     85         17.522838   0.000000
     86         17.523057   0.000000
     87         19.612621   0.000000
     88         19.633122   0.000000

  0.3157895E+00  0.3157895E+00  0.5000000E+00  0.5555556E-02
      1        -11.933844   1.000000
      2        -11.933410   1.000000
      3        -11.797138   1.000000
      4        -11.797041   1.000000
      5        -11.788053   1.000000
      6        -11.787976   1.000000
      7        -11.762758   1.000000
      8        -11.762539   1.000000
      9        -11.694988   1.000000
     10        -11.694942   1.000000
     11        -11.688837   1.000000
     12        -11.688829   1.000000
     13        -10.914173   1.000000
     14        -10.913678   1.000000
     15        -10.829594   1.000000
     16        -10.829513   1.000000
     17        -10.797704   1.000000
     18        -10.797633   1.000000
     19        -10.789011   1.000000
     20        -10.788840   1.000000
     21        -10.700946   1.000000
     22        -10.700910   1.000000
     23        -10.695000   1.000000
     24        -10.694650   1.000000
     25        -10.652265   1.000000
     26        -10.652102   1.000000
     27        -10.632835   1.000000
     28        -10.632757   1.000000
     29        -10.613635   1.000000
     30        -10.613546   1.000000
     31          1.833621   1.000000
     32          1.833957   1.000000
     33          2.027837   1.000000
     34          2.028984   1.000000
     35          2.455170   1.000000
     36          2.460882   1.000000
     37          4.307057   1.000000
     38          4.310241   1.000000
     39          4.615061   1.000000
     40          4.620631   1.000000
     41          4.870144   1.000000
     42          4.871381   1.000000
     43          7.237180   1.000000
     44          7.243992   1.000000
     45          7.401844   1.000000
     46          7.449132   1.000000
     47          7.735411   1.000000
     48          7.744841   1.000000
     49          7.957616   1.000000
     50          7.973335   1.000000
     51          8.082457   1.000000
     52          8.085148   1.000000
     53          8.470982   1.000000
     54          8.471861   1.000000
     55          8.607148   1.000000
     56          8.650447   1.000000
     57          8.977816   1.000000
     58          8.983940   1.000000
     59          9.020005   1.000000
     60          9.023602   1.000000
     61          9.150462   1.000000
     62          9.182039   1.000000
     63          9.270765   1.000000
     64          9.302199   0.999999
     65          9.316144   0.999999
     66          9.363136   0.999994
     67          9.392715   0.999984
     68          9.394620   0.999983
     69          9.507511   0.999587
     70          9.576720   0.997843
     71          9.821493   0.869376
     72          9.879465   0.762239
     73         11.239455   0.000000
     74         11.240629   0.000000
     75         13.179382   0.000000
     76         13.202800   0.000000
     77         13.259253   0.000000
     78         13.262981   0.000000
     79         13.662858   0.000000
     80         13.669945   0.000000
     81         13.701811   0.000000
     82         13.712487   0.000000
     83         14.679954   0.000000
     84         14.688874   0.000000
     85         17.462038   0.000000
     86         17.463065   0.000000
     87         19.521094   0.000000
     88         19.542099   0.000000

  0.2982456E+00  0.2982456E+00  0.5000000E+00  0.5555556E-02
      1        -11.933908   1.000000
      2        -11.933474   1.000000
      3        -11.797469   1.000000
      4        -11.797383   1.000000
      5        -11.787741   1.000000
      6        -11.787659   1.000000
      7        -11.762830   1.000000
      8        -11.762610   1.000000
      9        -11.694683   1.000000
     10        -11.694638   1.000000
     11        -11.689019   1.000000
     12        -11.689007   1.000000
     13        -10.914328   1.000000
     14        -10.913829   1.000000
     15        -10.829528   1.000000
     16        -10.829445   1.000000
     17        -10.799050   1.000000
     18        -10.799017   1.000000
     19        -10.787736   1.000000
     20        -10.787609   1.000000
     21        -10.700159   1.000000
     22        -10.700117   1.000000
     23        -10.695376   1.000000
     24        -10.695032   1.000000
     25        -10.651944   1.000000
     26        -10.651772   1.000000
     27        -10.634285   1.000000
     28        -10.634206   1.000000
     29        -10.613453   1.000000
     30        -10.613363   1.000000
     31          1.712321   1.000000
     32          1.712559   1.000000
     33          2.146886   1.000000
     34          2.148076   1.000000
     35          2.417012   1.000000
     36          2.422956   1.000000
     37          4.235679   1.000000
     38          4.239028   1.000000
     39          4.769681   1.000000
     40          4.774964   1.000000
     41          4.917883   1.000000
     42          4.919220   1.000000
     43          7.208025   1.000000
     44          7.213085   1.000000
     45          7.419947   1.000000
     46          7.463026   1.000000
     47          7.657369   1.000000
     48          7.667302   1.000000
     49          8.017271   1.000000
     50          8.031835   1.000000
     51          8.086782   1.000000
     52          8.088265   1.000000
     53          8.434091   1.000000
     54          8.440813   1.000000
     55          8.652470   1.000000
     56          8.692314   1.000000
     57          8.980645   1.000000
     58          8.986192   1.000000
     59          9.020998   1.000000
     60          9.025276   1.000000
     61          9.118994   1.000000
     62          9.162234   1.000000
     63          9.273067   1.000000
     64          9.300290   0.999999
     65          9.327286   0.999998
     66          9.374573   0.999991
     67          9.388275   0.999986
     68          9.394847   0.999983
     69          9.517190   0.999472
     70          9.588121   0.997228
     71          9.821413   0.869497
     72          9.879958   0.761159
     73         11.162710   0.000000
     74         11.163300   0.000000
     75         12.915347   0.000000
     76         12.942744   0.000000
     77         13.109588   0.000000
     78         13.116369   0.000000
     79         13.734495   0.000000
     80         13.752494   0.000000
     81         13.947265   0.000000
     82         13.956578   0.000000
     83         14.953341   0.000000
     84         14.962047   0.000000
     85         17.275600   0.000000
     86         17.277649   0.000000
     87         19.129079   0.000000
     88         19.141251   0.000000

  0.2807018E+00  0.2807018E+00  0.5000000E+00  0.5555556E-02
      1        -11.934003   1.000000
      2        -11.933567   1.000000
      3        -11.798685   1.000000
      4        -11.798606   1.000000
      5        -11.786193   1.000000
      6        -11.786114   1.000000
      7        -11.762932   1.000000
      8        -11.762710   1.000000
      9        -11.694611   1.000000
     10        -11.694570   1.000000
     11        -11.689030   1.000000
     12        -11.689013   1.000000
     13        -10.914567   1.000000
     14        -10.914066   1.000000
     15        -10.829431   1.000000
     16        -10.829348   1.000000
     17        -10.801470   1.000000
     18        -10.801452   1.000000
     19        -10.784739   1.000000
     20        -10.784648   1.000000
     21        -10.699430   1.000000
     22        -10.699383   1.000000
     23        -10.696091   1.000000
     24        -10.695748   1.000000
     25        -10.652000   1.000000
     26        -10.651824   1.000000
     27        -10.635551   1.000000
     28        -10.635473   1.000000
     29        -10.613234   1.000000
     30        -10.613142   1.000000
     31          1.584505   1.000000
     32          1.584571   1.000000
     33          2.275337   1.000000
     34          2.276387   1.000000
     35          2.349645   1.000000
     36          2.355670   1.000000
     37          4.211344   1.000000
     38          4.214933   1.000000
     39          4.934702   1.000000
     40          4.939497   1.000000
     41          4.994938   1.000000
     42          4.996503   1.000000
     43          7.175574   1.000000
     44          7.178998   1.000000
     45          7.440644   1.000000
     46          7.479124   1.000000
     47          7.581369   1.000000
     48          7.591518   1.000000
     49          8.064413   1.000000
     50          8.076226   1.000000
     51          8.096655   1.000000
     52          8.098554   1.000000
     53          8.396999   1.000000
     54          8.409346   1.000000
     55          8.698679   1.000000
     56          8.735320   1.000000
     57          8.972747   1.000000
     58          8.978995   1.000000
     59          9.010412   1.000000
     60          9.018274   1.000000
     61          9.065508   1.000000
     62          9.117848   1.000000
     63          9.271761   1.000000
     64          9.291980   0.999999
     65          9.370515   0.999992
     66          9.389046   0.999986
     67          9.394817   0.999983
     68          9.426973   0.999954
     69          9.528723   0.999298
     70          9.599961   0.996426
     71          9.820343   0.871094
     72          9.879618   0.761903
     73         11.058633   0.000000
     74         11.059178   0.000000
     75         12.655815   0.000000
     76         12.684256   0.000000
     77         12.967411   0.000000
     78         12.975151   0.000000
     79         13.698238   0.000000
     80         13.716144   0.000000
     81         14.263930   0.000000
     82         14.271909   0.000000
     83         15.352193   0.000000
     84         15.360647   0.000000
     85         16.983805   0.000000
     86         16.986904   0.000000
     87         18.633368   0.000000
     88         18.668069   0.000000

  0.2631579E+00  0.2631579E+00  0.5000000E+00  0.5555556E-02
      1        -11.934125   1.000000
      2        -11.933689   1.000000
      3        -11.800436   1.000000
      4        -11.800359   1.000000
      5        -11.783944   1.000000
      6        -11.783871   1.000000
      7        -11.763140   1.000000
      8        -11.762917   1.000000
      9        -11.694831   1.000000
     10        -11.694793   1.000000
     11        -11.688874   1.000000
     12        -11.688854   1.000000
     13        -10.914894   1.000000
     14        -10.914391   1.000000
     15        -10.829331   1.000000
     16        -10.829247   1.000000
     17        -10.804331   1.000000
     18        -10.804308   1.000000
     19        -10.780923   1.000000
     20        -10.780854   1.000000
     21        -10.699041   1.000000
     22        -10.698998   1.000000
     23        -10.697131   1.000000
     24        -10.696784   1.000000
     25        -10.652596   1.000000
     26        -10.652423   1.000000
     27        -10.636636   1.000000
     28        -10.636561   1.000000
     29        -10.613011   1.000000
     30        -10.612917   1.000000
     31          1.453681   1.000000
     32          1.453821   1.000000
     33          2.254802   1.000000
     34          2.260919   1.000000
     35          2.413549   1.000000
     36          2.414482   1.000000
     37          4.230790   1.000000
     38          4.234761   1.000000
     39          5.082216   1.000000
     40          5.084091   1.000000
     41          5.124535   1.000000
     42          5.128701   1.000000
     43          7.142893   1.000000
     44          7.145109   1.000000
     45          7.461770   1.000000
     46          7.491324   1.000000
     47          7.512742   1.000000
     48          7.524302   1.000000
     49          8.095368   1.000000
     50          8.099402   1.000000
     51          8.114791   1.000000
     52          8.122565   1.000000
     53          8.361393   1.000000
     54          8.379255   1.000000
     55          8.743631   1.000000
     56          8.776209   1.000000
     57          8.941166   1.000000
     58          8.955020   1.000000
     59          8.985505   1.000000
     60          8.999021   1.000000
     61          9.030232   1.000000
     62          9.078938   1.000000
     63          9.271054   1.000000
     64          9.284803   1.000000
     65          9.389590   0.999985
     66          9.400032   0.999980
     67          9.437519   0.999938
     68          9.477875   0.999810
     69          9.542246   0.999026
     70          9.611718   0.995430
     71          9.818209   0.874240
     72          9.878728   0.763848
     73         10.940758   0.000000
     74         10.941374   0.000000
     75         12.404674   0.000000
     76         12.434028   0.000000
     77         12.831695   0.000000
     78         12.840185   0.000000
     79         13.626172   0.000000
     80         13.644138   0.000000
     81         14.598886   0.000000
     82         14.605446   0.000000
     83         15.810608   0.000000
     84         15.818649   0.000000
     85         16.626269   0.000000
     86         16.630385   0.000000
     87         18.131230   0.000000
     88         18.138258   0.000000

  0.2456140E+00  0.2456140E+00  0.5000000E+00  0.5555556E-02
      1        -11.934256   1.000000
      2        -11.933818   1.000000
      3        -11.802240   1.000000
      4        -11.802163   1.000000
      5        -11.781206   1.000000
      6        -11.781141   1.000000
      7        -11.763332   1.000000
      8        -11.763107   1.000000
      9        -11.695280   1.000000
     10        -11.695246   1.000000
     11        -11.688517   1.000000
     12        -11.688494   1.000000
     13        -10.915318   1.000000
     14        -10.914814   1.000000
     15        -10.829009   1.000000
     16        -10.828926   1.000000
     17        -10.807117   1.000000
     18        -10.807088   1.000000
     19        -10.776331   1.000000
     20        -10.776275   1.000000
     21        -10.699521   1.000000
     22        -10.699462   1.000000
     23        -10.697708   1.000000
     24        -10.697423   1.000000
     25        -10.653595   1.000000
     26        -10.653429   1.000000
     27        -10.637462   1.000000
     28        -10.637393   1.000000
     29        -10.612813   1.000000
     30        -10.612719   1.000000
     31          1.322882   1.000000
     32          1.323196   1.000000
     33          2.141683   1.000000
     34          2.147770   1.000000
     35          2.558450   1.000000
     36          2.559187   1.000000
     37          4.286211   1.000000
     38          4.290702   1.000000
     39          5.205970   1.000000
     40          5.207736   1.000000
     41          5.308506   1.000000
     42          5.312931   1.000000
     43          7.113074   1.000000
     44          7.114794   1.000000
     45          7.434146   1.000000
     46          7.444267   1.000000
     47          7.497661   1.000000
     48          7.526895   1.000000
     49          8.110107   1.000000
     50          8.115028   1.000000
     51          8.138380   1.000000
     52          8.147492   1.000000
     53          8.329038   1.000000
     54          8.352598   1.000000
     55          8.783092   1.000000
     56          8.808924   1.000000
     57          8.880329   1.000000
     58          8.911201   1.000000
     59          8.954328   1.000000
     60          8.970875   1.000000
     61          9.021234   1.000000
     62          9.061269   1.000000
     63          9.272855   1.000000
     64          9.281802   1.000000
     65          9.399524   0.999980
     66          9.412051   0.999971
     67          9.490395   0.999735
     68          9.528303   0.999305
     69          9.561022   0.998488
     70          9.623233   0.994221
     71          9.815103   0.878724
     72          9.877853   0.765750
     73         10.818292   0.000000
     74         10.818956   0.000000
     75         12.163493   0.000000
     76         12.193773   0.000000
     77         12.701948   0.000000
     78         12.711116   0.000000
     79         13.542002   0.000000
     80         13.560198   0.000000
     81         14.914509   0.000000
     82         14.919718   0.000000
     83         16.216570   0.000000
     84         16.221589   0.000000
     85         16.318049   0.000000
     86         16.324900   0.000000
     87         17.644612   0.000000
     88         17.652078   0.000000

  0.2280702E+00  0.2280702E+00  0.5000000E+00  0.5555556E-02
      1        -11.934512   1.000000
      2        -11.934074   1.000000
      3        -11.804085   1.000000
      4        -11.804006   1.000000
      5        -11.778280   1.000000
      6        -11.778223   1.000000
      7        -11.763653   1.000000
      8        -11.763428   1.000000
      9        -11.695983   1.000000
     10        -11.695952   1.000000
     11        -11.688135   1.000000
     12        -11.688112   1.000000
     13        -10.915979   1.000000
     14        -10.915474   1.000000
     15        -10.828846   1.000000
     16        -10.828766   1.000000
     17        -10.809796   1.000000
     18        -10.809758   1.000000
     19        -10.771395   1.000000
     20        -10.771346   1.000000
     21        -10.701134   1.000000
     22        -10.701018   1.000000
     23        -10.698094   1.000000
     24        -10.697858   1.000000
     25        -10.654926   1.000000
     26        -10.654771   1.000000
     27        -10.638246   1.000000
     28        -10.638184   1.000000
     29        -10.612743   1.000000
     30        -10.612649   1.000000
     31          1.194610   1.000000
     32          1.195083   1.000000
     33          2.016882   1.000000
     34          2.022898   1.000000
     35          2.710074   1.000000
     36          2.710574   1.000000
     37          4.368273   1.000000
     38          4.373406   1.000000
     39          5.344538   1.000000
     40          5.346453   1.000000
     41          5.504590   1.000000
     42          5.508752   1.000000
     43          7.089402   1.000000
     44          7.091363   1.000000
     45          7.372845   1.000000
     46          7.382853   1.000000
     47          7.525769   1.000000
     48          7.552337   1.000000
     49          8.119214   1.000000
     50          8.127769   1.000000
     51          8.156422   1.000000
     52          8.164654   1.000000
     53          8.302907   1.000000
     54          8.331963   1.000000
     55          8.792578   1.000000
     56          8.810126   1.000000
     57          8.833678   1.000000
     58          8.855340   1.000000
     59          8.936912   1.000000
     60          8.945909   1.000000
     61          9.019394   1.000000
     62          9.057624   1.000000
     63          9.276213   1.000000
     64          9.283473   1.000000
     65          9.410333   0.999972
     66          9.425542   0.999956
     67          9.529057   0.999292
     68          9.571522   0.998080
     69          9.593210   0.996906
     70          9.635307   0.992656
     71          9.811336   0.884009
     72          9.877956   0.765526
     73         10.697054   0.000000
     74         10.697731   0.000000
     75         11.932851   0.000000
     76         11.964086   0.000000
     77         12.577211   0.000000
     78         12.587011   0.000000
     79         13.452150   0.000000
     80         13.470665   0.000000
     81         15.157450   0.000000
     82         15.161520   0.000000
     83         15.833389   0.000000
     84         15.839518   0.000000
     85         16.763286   0.000000
     86         16.770240   0.000000
     87         17.221672   0.000000
     88         17.230107   0.000000

  0.2105263E+00  0.2105263E+00  0.5000000E+00  0.5555556E-02
      1        -11.934768   1.000000
      2        -11.934329   1.000000
      3        -11.805839   1.000000
      4        -11.805757   1.000000
      5        -11.775177   1.000000
      6        -11.775127   1.000000
      7        -11.764019   1.000000
      8        -11.763794   1.000000
      9        -11.696792   1.000000
     10        -11.696762   1.000000
     11        -11.687722   1.000000
     12        -11.687699   1.000000
     13        -10.916672   1.000000
     14        -10.916167   1.000000
     15        -10.828680   1.000000
     16        -10.828605   1.000000
     17        -10.812228   1.000000
     18        -10.812179   1.000000
     19        -10.765971   1.000000
     20        -10.765927   1.000000
     21        -10.703292   1.000000
     22        -10.703176   1.000000
     23        -10.698750   1.000000
     24        -10.698509   1.000000
     25        -10.656287   1.000000
     26        -10.656145   1.000000
     27        -10.639030   1.000000
     28        -10.638974   1.000000
     29        -10.612667   1.000000
     30        -10.612576   1.000000
     31          1.070868   1.000000
     32          1.071482   1.000000
     33          1.887261   1.000000
     34          1.893190   1.000000
     35          2.867021   1.000000
     36          2.867250   1.000000
     37          4.467964   1.000000
     38          4.473843   1.000000
     39          5.498260   1.000000
     40          5.500344   1.000000
     41          5.708306   1.000000
     42          5.712114   1.000000
     43          7.075520   1.000000
     44          7.078026   1.000000
     45          7.317000   1.000000
     46          7.327003   1.000000
     47          7.559089   1.000000
     48          7.582307   1.000000
     49          8.122714   1.000000
     50          8.134053   1.000000
     51          8.166244   1.000000
     52          8.173397   1.000000
     53          8.287918   1.000000
     54          8.320314   1.000000
     55          8.729665   1.000000
     56          8.769094   1.000000
     57          8.806858   1.000000
     58          8.823260   1.000000
     59          8.940748   1.000000
     60          8.946577   1.000000
     61          9.019571   1.000000
     62          9.061668   1.000000
     63          9.280319   1.000000
     64          9.288745   0.999999
     65          9.421638   0.999961
     66          9.439890   0.999934
     67          9.547772   0.998889
     68          9.610342   0.995558
     69          9.629048   0.993509
     70          9.652334   0.989818
     71          9.807711   0.888937
     72          9.880629   0.759686
     73         10.580810   0.000011
     74         10.581488   0.000011
     75         11.713961   0.000000
     76         11.746152   0.000000
     77         12.456249   0.000000
     78         12.466649   0.000000
     79         13.357057   0.000000
     80         13.375941   0.000000
     81         15.254366   0.000000
     82         15.259299   0.000000
     83         15.450150   0.000000
     84         15.457443   0.000000
     85         16.638817   0.000000
     86         16.647409   0.000000
     87         17.420843   0.000000
     88         17.427520   0.000000

  0.1929825E+00  0.1929825E+00  0.5000000E+00  0.5555556E-02
      1        -11.935035   1.000000
      2        -11.934596   1.000000
      3        -11.807499   1.000000
      4        -11.807414   1.000000
      5        -11.772102   1.000000
      6        -11.772055   1.000000
      7        -11.764382   1.000000
      8        -11.764161   1.000000
      9        -11.697637   1.000000
     10        -11.697608   1.000000
     11        -11.687315   1.000000
     12        -11.687293   1.000000
     13        -10.917431   1.000000
     14        -10.916927   1.000000
     15        -10.828508   1.000000
     16        -10.828439   1.000000
     17        -10.814382   1.000000
     18        -10.814320   1.000000
     19        -10.760251   1.000000
     20        -10.760209   1.000000
     21        -10.705820   1.000000
     22        -10.705716   1.000000
     23        -10.699857   1.000000
     24        -10.699595   1.000000
     25        -10.657509   1.000000
     26        -10.657381   1.000000
     27        -10.639958   1.000000
     28        -10.639908   1.000000
     29        -10.612619   1.000000
     30        -10.612532   1.000000
     31          0.953242   1.000000
     32          0.953977   1.000000
     33          1.758073   1.000000
     34          1.763916   1.000000
     35          3.027644   1.000000
     36          3.027775   1.000000
     37          4.577180   1.000000
     38          4.583896   1.000000
     39          5.665065   1.000000
     40          5.667321   1.000000
     41          5.917516   1.000000
     42          5.920898   1.000000
     43          7.075022   1.000000
     44          7.078136   1.000000
     45          7.269021   1.000000
     46          7.279044   1.000000
     47          7.596164   1.000000
     48          7.616162   1.000000
     49          8.118807   1.000000
     50          8.129939   1.000000
     51          8.167822   1.000000
     52          8.174279   1.000000
     53          8.288204   1.000000
     54          8.319186   1.000000
     55          8.662539   1.000000
     56          8.708842   1.000000
     57          8.758442   1.000000
     58          8.783657   1.000000
     59          8.961489   1.000000
     60          8.965824   1.000000
     61          9.020933   1.000000
     62          9.071992   1.000000
     63          9.285116   1.000000
     64          9.295753   0.999999
     65          9.432865   0.999946
     66          9.454491   0.999900
     67          9.557500   0.998606
     68          9.629693   0.993425
     69          9.662970   0.987596
     70          9.675526   0.984442
     71          9.805911   0.891329
     72          9.887757   0.743730
     73         10.471830   0.000255
     74         10.472556   0.000250
     75         11.508014   0.000000
     76         11.541119   0.000000
     77         12.337649   0.000000
     78         12.348632   0.000000
     79         13.254093   0.000000
     80         13.273396   0.000000
     81         15.036172   0.000000
     82         15.044696   0.000000
     83         15.231989   0.000000
     84         15.234394   0.000000
     85         16.228796   0.000000
     86         16.238649   0.000000
     87         17.274042   0.000000
     88         17.289490   0.000000

  0.1754386E+00  0.1754386E+00  0.5000000E+00  0.5555556E-02
      1        -11.935367   1.000000
      2        -11.934927   1.000000
      3        -11.809067   1.000000
      4        -11.808979   1.000000
      5        -11.769412   1.000000
      6        -11.769347   1.000000
      7        -11.764572   1.000000
      8        -11.764373   1.000000
      9        -11.698574   1.000000
     10        -11.698545   1.000000
     11        -11.686991   1.000000
     12        -11.686970   1.000000
     13        -10.918337   1.000000
     14        -10.917834   1.000000
     15        -10.828401   1.000000
     16        -10.828339   1.000000
     17        -10.816334   1.000000
     18        -10.816258   1.000000
     19        -10.754405   1.000000
     20        -10.754362   1.000000
     21        -10.708820   1.000000
     22        -10.708730   1.000000
     23        -10.701448   1.000000
     24        -10.701159   1.000000
     25        -10.658611   1.000000
     26        -10.658496   1.000000
     27        -10.641165   1.000000
     28        -10.641120   1.000000
     29        -10.612666   1.000000
     30        -10.612584   1.000000
     31          0.843017   1.000000
     32          0.843858   1.000000
     33          1.633168   1.000000
     34          1.638931   1.000000
     35          3.189929   1.000000
     36          3.190405   1.000000
     37          4.688713   1.000000
     38          4.696339   1.000000
     39          5.842650   1.000000
     40          5.845076   1.000000
     41          6.129913   1.000000
     42          6.132786   1.000000
     43          7.091263   1.000000
     44          7.095051   1.000000
     45          7.230440   1.000000
     46          7.240522   1.000000
     47          7.636730   1.000000
     48          7.653690   1.000000
     49          8.108087   1.000000
     50          8.115777   1.000000
     51          8.162724   1.000000
     52          8.168808   1.000000
     53          8.301376   1.000000
     54          8.326720   1.000000
     55          8.601041   1.000000
     56          8.651525   1.000000
     57          8.701099   1.000000
     58          8.728256   1.000000
     59          8.978936   1.000000
     60          8.991174   1.000000
     61          9.024590   1.000000
     62          9.087862   1.000000
     63          9.290229   0.999999
     64          9.303221   0.999999
     65          9.443502   0.999927
     66          9.468757   0.999851
     67          9.563082   0.998415
     68          9.635798   0.992585
     69          9.688140   0.980604
     70          9.692026   0.979271
     71          9.808913   0.887320
     72          9.900248   0.714495
     73         10.371320   0.002851
     74         10.372227   0.002796
     75         11.316553   0.000000
     76         11.350458   0.000000
     77         12.219768   0.000000
     78         12.231339   0.000000
     79         13.138936   0.000000
     80         13.158749   0.000000
     81         14.687124   0.000000
     82         14.696777   0.000000
     83         15.036407   0.000000
     84         15.036934   0.000000
     85         15.835093   0.000000
     86         15.846172   0.000000
     87         16.827737   0.000000
     88         16.843718   0.000000

  0.1578947E+00  0.1578947E+00  0.5000000E+00  0.5555556E-02
      1        -11.935647   1.000000
      2        -11.935206   1.000000
      3        -11.810463   1.000000
      4        -11.810371   1.000000
      5        -11.767794   1.000000
      6        -11.767648   1.000000
      7        -11.763661   1.000000
      8        -11.763545   1.000000
      9        -11.699455   1.000000
     10        -11.699425   1.000000
     11        -11.686730   1.000000
     12        -11.686711   1.000000
     13        -10.919181   1.000000
     14        -10.918679   1.000000
     15        -10.828193   1.000000
     16        -10.828136   1.000000
     17        -10.817961   1.000000
     18        -10.817872   1.000000
     19        -10.748250   1.000000
     20        -10.748204   1.000000
     21        -10.712187   1.000000
     22        -10.712100   1.000000
     23        -10.703137   1.000000
     24        -10.702827   1.000000
     25        -10.659527   1.000000
     26        -10.659424   1.000000
     27        -10.642533   1.000000
     28        -10.642495   1.000000
     29        -10.612709   1.000000
     30        -10.612633   1.000000
     31          0.741199   1.000000
     32          0.742131   1.000000
     33          1.515316   1.000000
     34          1.521008   1.000000
     35          3.351826   1.000000
     36          3.352709   1.000000
     37          4.796237   1.000000
     38          4.804811   1.000000
     39          6.028589   1.000000
     40          6.031174   1.000000
     41          6.342712   1.000000
     42          6.344960   1.000000
     43          7.126970   1.000000
     44          7.131607   1.000000
     45          7.202841   1.000000
     46          7.213021   1.000000
     47          7.680503   1.000000
     48          7.694597   1.000000
     49          8.093229   1.000000
     50          8.096478   1.000000
     51          8.152247   1.000000
     52          8.157997   1.000000
     53          8.320606   1.000000
     54          8.338319   1.000000
     55          8.548809   1.000000
     56          8.602674   1.000000
     57          8.637511   1.000000
     58          8.664048   1.000000
     59          8.989350   1.000000
     60          9.008950   1.000000
     61          9.036476   1.000000
     62          9.106853   1.000000
     63          9.295175   0.999999
     64          9.310397   0.999999
     65          9.453174   0.999903
     66          9.482156   0.999787
     67          9.565718   0.998316
     68          9.636784   0.992441
     69          9.693369   0.978792
     70          9.699217   0.976598
     71          9.818183   0.874278
     72          9.915965   0.675599
     73         10.279820   0.017112
     74         10.281068   0.016742
     75         11.141606   0.000000
     76         11.176105   0.000000
     77         12.101331   0.000000
     78         12.113533   0.000000
     79         13.006648   0.000000
     80         13.027151   0.000000
     81         14.361190   0.000000
     82         14.372089   0.000000
     83         14.775519   0.000000
     84         14.775720   0.000000
     85         15.478456   0.000000
     86         15.490841   0.000000
     87         16.403315   0.000000
     88         16.419711   0.000000

  0.1403509E+00  0.1403509E+00  0.5000000E+00  0.5555556E-02
      1        -11.935951   1.000000
      2        -11.935511   1.000000
      3        -11.811690   1.000000
      4        -11.811595   1.000000
      5        -11.767705   1.000000
      6        -11.767502   1.000000
      7        -11.761295   1.000000
      8        -11.761240   1.000000
      9        -11.700303   1.000000
     10        -11.700272   1.000000
     11        -11.686542   1.000000
     12        -11.686526   1.000000
     13        -10.920090   1.000000
     14        -10.919589   1.000000
     15        -10.827985   1.000000
     16        -10.827931   1.000000
     17        -10.819241   1.000000
     18        -10.819140   1.000000
     19        -10.741965   1.000000
     20        -10.741913   1.000000
     21        -10.715871   1.000000
     22        -10.715780   1.000000
     23        -10.704753   1.000000
     24        -10.704432   1.000000
     25        -10.660423   1.000000
     26        -10.660330   1.000000
     27        -10.644028   1.000000
     28        -10.643997   1.000000
     29        -10.612807   1.000000
     30        -10.612736   1.000000
     31          0.648571   1.000000
     32          0.649579   1.000000
     33          1.406510   1.000000
     34          1.412140   1.000000
     35          3.510656   1.000000
     36          3.511991   1.000000
     37          4.894534   1.000000
     38          4.904050   1.000000
     39          6.220213   1.000000
     40          6.222935   1.000000
     41          6.552337   1.000000
     42          6.553798   1.000000
     43          7.181150   1.000000
     44          7.186771   1.000000
     45          7.191890   1.000000
     46          7.199257   1.000000
     47          7.726942   1.000000
     48          7.738322   1.000000
     49          8.075651   1.000000
     50          8.078022   1.000000
     51          8.136964   1.000000
     52          8.142420   1.000000
     53          8.338636   1.000000
     54          8.348437   1.000000
     55          8.510369   1.000000
     56          8.561580   1.000000
     57          8.572942   1.000000
     58          8.595083   1.000000
     59          8.995431   1.000000
     60          9.014488   1.000000
     61          9.056447   1.000000
     62          9.125502   1.000000
     63          9.299522   0.999999
     64          9.316727   0.999999
     65          9.461549   0.999878
     66          9.494126   0.999707
     67          9.565887   0.998310
     68          9.634319   0.992797
     69          9.684633   0.981745
     70          9.693315   0.978811
     71          9.828727   0.858206
     72          9.929861   0.639518
     73         10.197306   0.062521
     74         10.198937   0.061114
     75         10.985565   0.000000
     76         11.020364   0.000000
     77         11.981593   0.000000
     78         11.994518   0.000000
     79         12.852867   0.000000
     80         12.874390   0.000000
     81         14.068821   0.000000
     82         14.080926   0.000000
     83         14.488263   0.000000
     84         14.488881   0.000000
     85         15.167934   0.000000
     86         15.181663   0.000000
     87         16.003715   0.000000
     88         16.020529   0.000000

  0.1228070E+00  0.1228070E+00  0.5000000E+00  0.5555556E-02
      1        -11.936251   1.000000
      2        -11.935810   1.000000
      3        -11.812773   1.000000
      4        -11.812675   1.000000
      5        -11.768186   1.000000
      6        -11.767966   1.000000
      7        -11.758576   1.000000
      8        -11.758542   1.000000
      9        -11.701101   1.000000
     10        -11.701069   1.000000
     11        -11.686442   1.000000
     12        -11.686428   1.000000
     13        -10.921007   1.000000
     14        -10.920508   1.000000
     15        -10.827689   1.000000
     16        -10.827636   1.000000
     17        -10.820337   1.000000
     18        -10.820225   1.000000
     19        -10.735736   1.000000
     20        -10.735674   1.000000
     21        -10.719798   1.000000
     22        -10.719701   1.000000
     23        -10.706222   1.000000
     24        -10.705902   1.000000
     25        -10.661558   1.000000
     26        -10.661477   1.000000
     27        -10.645568   1.000000
     28        -10.645544   1.000000
     29        -10.613003   1.000000
     30        -10.612937   1.000000
     31          0.565735   1.000000
     32          0.566808   1.000000
     33          1.308186   1.000000
     34          1.313765   1.000000
     35          3.663350   1.000000
     36          3.665176   1.000000
     37          4.979862   1.000000
     38          4.990259   1.000000
     39          6.414495   1.000000
     40          6.417312   1.000000
     41          6.754116   1.000000
     42          6.754688   1.000000
     43          7.185971   1.000000
     44          7.197165   1.000000
     45          7.261182   1.000000
     46          7.269057   1.000000
     47          7.774895   1.000000
     48          7.783694   1.000000
     49          8.057383   1.000000
     50          8.063279   1.000000
     51          8.117804   1.000000
     52          8.122926   1.000000
     53          8.347755   1.000000
     54          8.352600   1.000000
     55          8.478904   1.000000
     56          8.504938   1.000000
     57          8.514720   1.000000
     58          8.557780   1.000000
     59          8.998760   1.000000
     60          9.016298   1.000000
     61          9.074244   1.000000
     62          9.140965   1.000000
     63          9.302985   0.999999
     64          9.321830   0.999998
     65          9.468340   0.999853
     66          9.504075   0.999621
     67          9.564012   0.998381
     68          9.628940   0.993522
     69          9.666234   0.986835
     70          9.676875   0.984065
     71          9.832454   0.852206
     72          9.935994   0.623165
     73         10.123592   0.155598
     74         10.125364   0.152623
     75         10.851158   0.000000
     76         10.885955   0.000000
     77         11.860917   0.000000
     78         11.874709   0.000000
     79         12.676162   0.000000
     80         12.699239   0.000000
     81         13.814222   0.000000
     82         13.827379   0.000000
     83         14.200629   0.000000
     84         14.201797   0.000000
     85         14.908845   0.000000
     86         14.923865   0.000000
     87         15.632628   0.000000
     88         15.649874   0.000000

  0.1052632E+00  0.1052632E+00  0.5000000E+00  0.5555556E-02
      1        -11.936516   1.000000
      2        -11.936074   1.000000
      3        -11.813713   1.000000
      4        -11.813613   1.000000
      5        -11.768762   1.000000
      6        -11.768535   1.000000
      7        -11.755844   1.000000
      8        -11.755817   1.000000
      9        -11.701772   1.000000
     10        -11.701739   1.000000
     11        -11.686445   1.000000
     12        -11.686433   1.000000
     13        -10.921860   1.000000
     14        -10.921363   1.000000
     15        -10.827324   1.000000
     16        -10.827269   1.000000
     17        -10.821197   1.000000
     18        -10.821079   1.000000
     19        -10.729844   1.000000
     20        -10.729763   1.000000
     21        -10.723383   1.000000
     22        -10.723285   1.000000
     23        -10.707270   1.000000
     24        -10.706963   1.000000
     25        -10.663163   1.000000
     26        -10.663095   1.000000
     27        -10.647012   1.000000
     28        -10.646992   1.000000
     29        -10.613116   1.000000
     30        -10.613053   1.000000
     31          0.493170   1.000000
     32          0.494297   1.000000
     33          1.221389   1.000000
     34          1.226924   1.000000
     35          3.806427   1.000000
     36          3.808769   1.000000
     37          5.050245   1.000000
     38          5.061417   1.000000
     39          6.607823   1.000000
     40          6.610676   1.000000
     41          6.940937   1.000000
     42          6.942383   1.000000
     43          7.201298   1.000000
     44          7.213174   1.000000
     45          7.354226   1.000000
     46          7.365225   1.000000
     47          7.821513   1.000000
     48          7.827828   1.000000
     49          8.042297   1.000000
     50          8.051201   1.000000
     51          8.097174   1.000000
     52          8.101607   1.000000
     53          8.345326   1.000000
     54          8.351726   1.000000
     55          8.407354   1.000000
     56          8.428588   1.000000
     57          8.513124   1.000000
     58          8.559303   1.000000
     59          9.000293   1.000000
     60          9.017047   1.000000
     61          9.086205   1.000000
     62          9.151465   1.000000
     63          9.305400   0.999999
     64          9.325467   0.999998
     65          9.473219   0.999832
     66          9.511259   0.999545
     67          9.560319   0.998512
     68          9.619771   0.994611
     69          9.641675   0.991689
     70          9.653005   0.989689
     71          9.823713   0.866015
     72          9.929214   0.641229
     73         10.058375   0.290625
     74         10.059576   0.287721
     75         10.741014   0.000000
     76         10.775664   0.000000
     77         11.741400   0.000000
     78         11.756236   0.000000
     79         12.480283   0.000000
     80         12.505659   0.000000
     81         13.599162   0.000000
     82         13.613059   0.000000
     83         13.928649   0.000000
     84         13.930652   0.000000
     85         14.701957   0.000000
     86         14.718115   0.000000
     87         15.294287   0.000000
     88         15.311967   0.000000

  0.8771930E-01  0.8771930E-01  0.5000000E+00  0.5555556E-02
      1        -11.936750   1.000000
      2        -11.936308   1.000000
      3        -11.814511   1.000000
      4        -11.814408   1.000000
      5        -11.769341   1.000000
      6        -11.769110   1.000000
      7        -11.753344   1.000000
      8        -11.753319   1.000000
      9        -11.702342   1.000000
     10        -11.702308   1.000000
     11        -11.686508   1.000000
     12        -11.686498   1.000000
     13        -10.922631   1.000000
     14        -10.922135   1.000000
     15        -10.826905   1.000000
     16        -10.826842   1.000000
     17        -10.821878   1.000000
     18        -10.821756   1.000000
     19        -10.728778   1.000000
     20        -10.728678   1.000000
     21        -10.722442   1.000000
     22        -10.722353   1.000000
     23        -10.707683   1.000000
     24        -10.707412   1.000000
     25        -10.665399   1.000000
     26        -10.665344   1.000000
     27        -10.648159   1.000000
     28        -10.648135   1.000000
     29        -10.613273   1.000000
     30        -10.613212   1.000000
     31          0.431249   1.000000
     32          0.432420   1.000000
     33          1.146902   1.000000
     34          1.152401   1.000000
     35          3.936188   1.000000
     36          3.939051   1.000000
     37          5.105519   1.000000
     38          5.117329   1.000000
     39          6.795839   1.000000
     40          6.798665   1.000000
     41          7.104348   1.000000
     42          7.108100   1.000000
     43          7.235827   1.000000
     44          7.248456   1.000000
     45          7.456020   1.000000
     46          7.471840   1.000000
     47          7.859050   1.000000
     48          7.862923   1.000000
     49          8.031243   1.000000
     50          8.041452   1.000000
     51          8.081815   1.000000
     52          8.084837   1.000000
     53          8.322916   1.000000
     54          8.336060   1.000000
     55          8.346777   1.000000
     56          8.357634   1.000000
     57          8.541074   1.000000
     58          8.577659   1.000000
     59          9.000493   1.000000
     60          9.017226   1.000000
     61          9.091401   1.000000
     62          9.156211   1.000000
     63          9.306689   0.999999
     64          9.327543   0.999998
     65          9.475738   0.999820
     66          9.514549   0.999506
     67          9.553972   0.998716
     68          9.599241   0.996481
     69          9.618006   0.994801
     70          9.628250   0.993611
     71          9.800666   0.898085
     72          9.906659   0.698898
     73         10.000735   0.442756
     74         10.001312   0.441145
     75         10.656111   0.000001
     76         10.690820   0.000000
     77         11.626944   0.000000
     78         11.642983   0.000000
     79         12.274860   0.000000
     80         12.303419   0.000000
     81         13.422545   0.000000
     82         13.436649   0.000000
     83         13.683807   0.000000
     84         13.687181   0.000000
     85         14.543643   0.000000
     86         14.560703   0.000000
     87         14.993590   0.000000
     88         15.011694   0.000000

  0.7017544E-01  0.7017544E-01  0.5000000E+00  0.5555556E-02
      1        -11.936931   1.000000
      2        -11.936489   1.000000
      3        -11.815070   1.000000
      4        -11.814965   1.000000
      5        -11.769847   1.000000
      6        -11.769615   1.000000
      7        -11.751240   1.000000
      8        -11.751213   1.000000
      9        -11.702790   1.000000
     10        -11.702754   1.000000
     11        -11.686578   1.000000
     12        -11.686569   1.000000
     13        -10.923277   1.000000
     14        -10.922783   1.000000
     15        -10.826297   1.000000
     16        -10.826223   1.000000
     17        -10.822377   1.000000
     18        -10.822254   1.000000
     19        -10.731841   1.000000
     20        -10.731725   1.000000
     21        -10.718278   1.000000
     22        -10.718094   1.000000
     23        -10.706763   1.000000
     24        -10.706572   1.000000
     25        -10.668345   1.000000
     26        -10.668303   1.000000
     27        -10.648924   1.000000
     28        -10.648891   1.000000
     29        -10.613439   1.000000
     30        -10.613378   1.000000
     31          0.380255   1.000000
     32          0.381461   1.000000
     33          1.085305   1.000000
     34          1.090777   1.000000
     35          4.048827   1.000000
     36          4.052188   1.000000
     37          5.146855   1.000000
     38          5.159161   1.000000
     39          6.973132   1.000000
     40          6.975939   1.000000
     41          7.230484   1.000000
     42          7.238247   1.000000
     43          7.297490   1.000000
     44          7.308970   1.000000
     45          7.555888   1.000000
     46          7.578506   1.000000
     47          7.869491   1.000000
     48          7.871590   1.000000
     49          8.024578   1.000000
     50          8.035033   1.000000
     51          8.083396   1.000000
     52          8.087137   1.000000
     53          8.242871   1.000000
     54          8.254594   1.000000
     55          8.352071   1.000000
     56          8.363217   1.000000
     57          8.580337   1.000000
     58          8.606938   1.000000
     59          8.999557   1.000000
     60          9.016901   1.000000
     61          9.090006   1.000000
     62          9.155330   1.000000
     63          9.306933   0.999999
     64          9.328155   0.999998
     65          9.475193   0.999823
     66          9.510629   0.999552
     67          9.540818   0.999059
     68          9.570544   0.998122
     69          9.589708   0.997131
     70          9.617497   0.994855
     71          9.765800   0.935398
     72          9.870301   0.781809
     73          9.948110   0.590228
     74          9.950496   0.583656
     75         10.595110   0.000007
     76         10.630384   0.000002
     77         11.522843   0.000000
     78         11.540168   0.000000
     79         12.074242   0.000000
     80         12.106830   0.000000
     81         13.280784   0.000000
     82         13.294205   0.000000
     83         13.475961   0.000000
     84         13.481706   0.000000
     85         14.426984   0.000000
     86         14.444681   0.000000
     87         14.736194   0.000000
     88         14.754663   0.000000

  0.5263158E-01  0.5263158E-01  0.5000000E+00  0.5555556E-02
      1        -11.937089   1.000000
      2        -11.936647   1.000000
      3        -11.815527   1.000000
      4        -11.815421   1.000000
      5        -11.770290   1.000000
      6        -11.770056   1.000000
      7        -11.749513   1.000000
      8        -11.749484   1.000000
      9        -11.703137   1.000000
     10        -11.703101   1.000000
     11        -11.686694   1.000000
     12        -11.686684   1.000000
     13        -10.923824   1.000000
     14        -10.923332   1.000000
     15        -10.825745   1.000000
     16        -10.825657   1.000000
     17        -10.822823   1.000000
     18        -10.822701   1.000000
     19        -10.734726   1.000000
     20        -10.734602   1.000000
     21        -10.715925   1.000000
     22        -10.715640   1.000000
     23        -10.703631   1.000000
     24        -10.703529   1.000000
     25        -10.671974   1.000000
     26        -10.671938   1.000000
     27        -10.649440   1.000000
     28        -10.649397   1.000000
     29        -10.613577   1.000000
     30        -10.613514   1.000000
     31          0.340397   1.000000
     32          0.341628   1.000000
     33          1.037010   1.000000
     34          1.042460   1.000000
     35          4.140733   1.000000
     36          4.144536   1.000000
     37          5.176130   1.000000
     38          5.188799   1.000000
     39          7.133256   1.000000
     40          7.136148   1.000000
     41          7.317133   1.000000
     42          7.330860   1.000000
     43          7.380431   1.000000
     44          7.391048   1.000000
     45          7.642124   1.000000
     46          7.672590   1.000000
     47          7.837303   1.000000
     48          7.840516   1.000000
     49          8.022411   1.000000
     50          8.034946   1.000000
     51          8.107407   1.000000
     52          8.111643   1.000000
     53          8.168302   1.000000
     54          8.175108   1.000000
     55          8.375746   1.000000
     56          8.384521   1.000000
     57          8.626238   1.000000
     58          8.643556   1.000000
     59          8.997521   1.000000
     60          9.015930   1.000000
     61          9.083385   1.000000
     62          9.150015   1.000000
     63          9.306204   0.999999
     64          9.327371   0.999998
     65          9.469084   0.999850
     66          9.488745   0.999746
     67          9.521765   0.999408
     68          9.546132   0.998932
     69          9.572046   0.998057
     70          9.611787   0.995424
     71          9.725432   0.964283
     72          9.827190   0.860632
     73          9.901621   0.711188
     74          9.904602   0.703943
     75         10.554393   0.000025
     76         10.590684   0.000008
     77         11.434820   0.000000
     78         11.453380   0.000000
     79         11.894669   0.000000
     80         11.931813   0.000000
     81         13.167774   0.000000
     82         13.179321   0.000000
     83         13.314442   0.000000
     84         13.324061   0.000000
     85         14.344128   0.000000
     86         14.362106   0.000000
     87         14.528265   0.000000
     88         14.546897   0.000000

  0.3508772E-01  0.3508772E-01  0.5000000E+00  0.5555556E-02
      1        -11.937204   1.000000
      2        -11.936762   1.000000
      3        -11.815851   1.000000
      4        -11.815744   1.000000
      5        -11.770625   1.000000
      6        -11.770390   1.000000
      7        -11.748240   1.000000
      8        -11.748208   1.000000
      9        -11.703375   1.000000
     10        -11.703338   1.000000
     11        -11.686803   1.000000
     12        -11.686793   1.000000
     13        -10.924229   1.000000
     14        -10.923738   1.000000
     15        -10.825203   1.000000
     16        -10.825100   1.000000
     17        -10.823221   1.000000
     18        -10.823101   1.000000
     19        -10.736956   1.000000
     20        -10.736825   1.000000
     21        -10.715183   1.000000
     22        -10.714853   1.000000
     23        -10.698921   1.000000
     24        -10.698857   1.000000
     25        -10.676104   1.000000
     26        -10.676070   1.000000
     27        -10.649741   1.000000
     28        -10.649691   1.000000
     29        -10.613682   1.000000
     30        -10.613617   1.000000
     31          0.311824   1.000000
     32          0.313074   1.000000
     33          1.002316   1.000000
     34          1.007751   1.000000
     35          4.208786   1.000000
     36          4.212937   1.000000
     37          5.195335   1.000000
     38          5.208247   1.000000
     39          7.269554   1.000000
     40          7.272139   1.000000
     41          7.395358   1.000000
     42          7.412359   1.000000
     43          7.448203   1.000000
     44          7.460416   1.000000
     45          7.704157   1.000000
     46          7.734735   1.000000
     47          7.774567   1.000000
     48          7.784876   1.000000
     49          8.022716   1.000000
     50          8.037482   1.000000
     51          8.094867   1.000000
     52          8.097899   1.000000
     53          8.151720   1.000000
     54          8.154395   1.000000
     55          8.410018   1.000000
     56          8.415262   1.000000
     57          8.674250   1.000000
     58          8.683680   1.000000
     59          8.994635   1.000000
     60          9.014244   1.000000
     61          9.074237   1.000000
     62          9.142548   1.000000
     63          9.304735   0.999999
     64          9.325357   0.999998
     65          9.448060   0.999916
     66          9.457889   0.999890
     67          9.502512   0.999636
     68          9.535719   0.999167
     69          9.564317   0.998369
     70          9.607660   0.995799
     71          9.688306   0.980549
     72          9.786101   0.915233
     73          9.863410   0.795896
     74          9.865840   0.790992
     75         10.529324   0.000052
     76         10.566725   0.000017
     77         11.368016   0.000000
     78         11.387608   0.000000
     79         11.752327   0.000000
     80         11.793868   0.000000
     81         13.078769   0.000000
     82         13.088099   0.000000
     83         13.206020   0.000000
     84         13.219967   0.000000
     85         14.287974   0.000000
     86         14.305025   0.000000
     87         14.377219   0.000000
     88         14.394894   0.000000

  0.1754386E-01  0.1754386E-01  0.5000000E+00  0.5555556E-02
      1        -11.937232   1.000000
      2        -11.936789   1.000000
      3        -11.815887   1.000000
      4        -11.815779   1.000000
      5        -11.770763   1.000000
      6        -11.770528   1.000000
      7        -11.747459   1.000000
      8        -11.747425   1.000000
      9        -11.703512   1.000000
     10        -11.703474   1.000000
     11        -11.686800   1.000000
     12        -11.686789   1.000000
     13        -10.924411   1.000000
     14        -10.923920   1.000000
     15        -10.824558   1.000000
     16        -10.824440   1.000000
     17        -10.823390   1.000000
     18        -10.823271   1.000000
     19        -10.738353   1.000000
     20        -10.738219   1.000000
     21        -10.714928   1.000000
     22        -10.714586   1.000000
     23        -10.694027   1.000000
     24        -10.693971   1.000000
     25        -10.680232   1.000000
     26        -10.680194   1.000000
     27        -10.649729   1.000000
     28        -10.649674   1.000000
     29        -10.613728   1.000000
     30        -10.613662   1.000000
     31          0.294638   1.000000
     32          0.295898   1.000000
     33          0.981422   1.000000
     34          0.986848   1.000000
     35          4.250595   1.000000
     36          4.254969   1.000000
     37          5.206135   1.000000
     38          5.219186   1.000000
     39          7.372656   1.000000
     40          7.373612   1.000000
     41          7.467588   1.000000
     42          7.476902   1.000000
     43          7.497716   1.000000
     44          7.507295   1.000000
     45          7.682225   1.000000
     46          7.687847   1.000000
     47          7.750133   1.000000
     48          7.797674   1.000000
     49          8.023641   1.000000
     50          8.038273   1.000000
     51          8.047851   1.000000
     52          8.051767   1.000000
     53          8.179385   1.000000
     54          8.181006   1.000000
     55          8.440101   1.000000
     56          8.443242   1.000000
     57          8.714469   1.000000
     58          8.718630   1.000000
     59          8.991747   1.000000
     60          9.012242   1.000000
     61          9.066374   1.000000
     62          9.136064   1.000000
     63          9.303006   0.999999
     64          9.322588   0.999998
     65          9.419668   0.999963
     66          9.433268   0.999945
     67          9.492940   0.999716
     68          9.532842   0.999223
     69          9.559442   0.998542
     70          9.604251   0.996088
     71          9.663415   0.987494
     72          9.756202   0.943531
     73          9.837520   0.843780
     74          9.839398   0.840578
     75         10.515949   0.000076
     76         10.554167   0.000025
     77         11.326355   0.000000
     78         11.346631   0.000000
     79         11.660959   0.000000
     80         11.705761   0.000000
     81         13.018666   0.000000
     82         13.026755   0.000000
     83         13.147424   0.000000
     84         13.163922   0.000000
     85         14.250981   0.000000
     86         14.260367   0.000000
     87         14.296840   0.000000
     88         14.306709   0.000000

 -0.2428613E-16 -0.2428613E-16  0.5000000E+00  0.5555556E-02
      1        -11.937245   1.000000
      2        -11.936802   1.000000
      3        -11.815929   1.000000
      4        -11.815821   1.000000
      5        -11.770823   1.000000
      6        -11.770588   1.000000
      7        -11.747196   1.000000
      8        -11.747162   1.000000
      9        -11.703557   1.000000
     10        -11.703519   1.000000
     11        -11.686810   1.000000
     12        -11.686798   1.000000
     13        -10.924482   1.000000
     14        -10.923991   1.000000
     15        -10.824282   1.000000
     16        -10.824141   1.000000
     17        -10.823582   1.000000
     18        -10.823455   1.000000
     19        -10.738833   1.000000
     20        -10.738697   1.000000
     21        -10.714898   1.000000
     22        -10.714553   1.000000
     23        -10.691304   1.000000
     24        -10.691245   1.000000
     25        -10.682666   1.000000
     26        -10.682620   1.000000
     27        -10.649753   1.000000
     28        -10.649697   1.000000
     29        -10.613749   1.000000
     30        -10.613683   1.000000
     31          0.288902   1.000000
     32          0.290167   1.000000
     33          0.974445   1.000000
     34          0.979868   1.000000
     35          4.264696   1.000000
     36          4.269147   1.000000
     37          5.209608   1.000000
     38          5.222704   1.000000
     39          7.414627   1.000000
     40          7.415060   1.000000
     41          7.492771   1.000000
     42          7.504832   1.000000
     43          7.525698   1.000000
     44          7.552268   1.000000
     45          7.628776   1.000000
     46          7.630893   1.000000
     47          7.760856   1.000000
     48          7.810771   1.000000
     49          8.025238   1.000000
     50          8.027475   1.000000
     51          8.029703   1.000000
     52          8.043006   1.000000
     53          8.190424   1.000000
     54          8.191567   1.000000
     55          8.451654   1.000000
     56          8.454770   1.000000
     57          8.730848   1.000000
     58          8.733377   1.000000
     59          8.990428   1.000000
     60          9.011226   1.000000
     61          9.063247   1.000000
     62          9.133456   1.000000
     63          9.302096   0.999999
     64          9.320990   0.999998
     65          9.408153   0.999974
     66          9.422447   0.999960
     67          9.490455   0.999734
     68          9.532138   0.999236
     69          9.557401   0.998609
     70          9.602675   0.996216
     71          9.655123   0.989272
     72          9.745223   0.951820
     73          9.828250   0.858961
     74          9.829979   0.856209
     75         10.511738   0.000086
     76         10.550251   0.000028
     77         11.312199   0.000000
     78         11.332715   0.000000
     79         11.629403   0.000000
     80         11.675418   0.000000
     81         12.997282   0.000000
     82         13.005021   0.000000
     83         13.129201   0.000000
     84         13.146410   0.000000
     85         14.231868   0.000000
     86         14.239358   0.000000
     87         14.276268   0.000000
     88         14.283584   0.000000

  0.5000000E+00  0.0000000E+00  0.5000000E+00  0.5555556E-02
      1        -11.934373   1.000000
      2        -11.933924   1.000000
      3        -11.798421   1.000000
      4        -11.798388   1.000000
      5        -11.786561   1.000000
      6        -11.786399   1.000000
      7        -11.763202   1.000000
      8        -11.762973   1.000000
      9        -11.693300   1.000000
     10        -11.693253   1.000000
     11        -11.689449   1.000000
     12        -11.689436   1.000000
     13        -10.915418   1.000000
     14        -10.914887   1.000000
     15        -10.828834   1.000000
     16        -10.828761   1.000000
     17        -10.802382   1.000000
     18        -10.802274   1.000000
     19        -10.784907   1.000000
     20        -10.784777   1.000000
     21        -10.704275   1.000000
     22        -10.703947   1.000000
     23        -10.683883   1.000000
     24        -10.683841   1.000000
     25        -10.658669   1.000000
     26        -10.658608   1.000000
     27        -10.635119   1.000000
     28        -10.635048   1.000000
     29        -10.615827   1.000000
     30        -10.615738   1.000000
     31          1.444083   1.000000
     32          1.446661   1.000000
     33          2.265197   1.000000
     34          2.274043   1.000000
     35          2.299386   1.000000
     36          2.304491   1.000000
     37          3.741010   1.000000
     38          3.742263   1.000000
     39          5.887529   1.000000
     40          5.894143   1.000000
     41          6.258427   1.000000
     42          6.282205   1.000000
     43          6.579710   1.000000
     44          6.598933   1.000000
     45          6.911196   1.000000
     46          6.916036   1.000000
     47          7.107358   1.000000
     48          7.120163   1.000000
     49          7.969392   1.000000
     50          7.996617   1.000000
     51          8.498443   1.000000
     52          8.517759   1.000000
     53          8.566258   1.000000
     54          8.584445   1.000000
     55          8.709769   1.000000
     56          8.739797   1.000000
     57          8.862036   1.000000
     58          8.895985   1.000000
     59          8.923476   1.000000
     60          8.991367   1.000000
     61          8.998876   1.000000
     62          9.011724   1.000000
     63          9.248133   1.000000
     64          9.260213   1.000000
     65          9.318376   0.999999
     66          9.331420   0.999998
     67          9.440724   0.999932
     68          9.460975   0.999880
     69          9.618725   0.994725
     70          9.731673   0.960675
     71          9.970320   0.528333
     72         10.139190   0.130716
     73         10.308238   0.010215
     74         10.323297   0.007657
     75         11.132263   0.000000
     76         11.156033   0.000000
     77         13.982055   0.000000
     78         13.988754   0.000000
     79         15.311691   0.000000
     80         15.332688   0.000000
     81         15.689846   0.000000
     82         15.695316   0.000000
     83         15.939748   0.000000
     84         15.944362   0.000000
     85         16.348533   0.000000
     86         16.362620   0.000000
     87         17.296179   0.000000
     88         17.301099   0.000000

  0.5000000E+00  0.0000000E+00  0.4736842E+00  0.5555556E-02
      1        -11.934361   1.000000
      2        -11.933912   1.000000
      3        -11.798436   1.000000
      4        -11.798403   1.000000
      5        -11.786551   1.000000
      6        -11.786388   1.000000
      7        -11.763197   1.000000
      8        -11.762968   1.000000
      9        -11.693352   1.000000
     10        -11.693304   1.000000
     11        -11.689358   1.000000
     12        -11.689344   1.000000
     13        -10.915399   1.000000
     14        -10.914867   1.000000
     15        -10.828794   1.000000
     16        -10.828722   1.000000
     17        -10.802424   1.000000
     18        -10.802316   1.000000
     19        -10.784839   1.000000
     20        -10.784709   1.000000
     21        -10.704306   1.000000
     22        -10.703979   1.000000
     23        -10.683674   1.000000
     24        -10.683633   1.000000
     25        -10.658689   1.000000
     26        -10.658628   1.000000
     27        -10.635279   1.000000
     28        -10.635208   1.000000
     29        -10.615754   1.000000
     30        -10.615665   1.000000
     31          1.426711   1.000000
     32          1.429242   1.000000
     33          2.147864   1.000000
     34          2.150392   1.000000
     35          2.417878   1.000000
     36          2.419156   1.000000
     37          3.766980   1.000000
     38          3.768325   1.000000
     39          5.893289   1.000000
     40          5.899584   1.000000
     41          6.260649   1.000000
     42          6.283372   1.000000
     43          6.524570   1.000000
     44          6.540290   1.000000
     45          6.967787   1.000000
     46          6.968687   1.000000
     47          7.108332   1.000000
     48          7.120926   1.000000
     49          7.969090   1.000000
     50          7.996174   1.000000
     51          8.489170   1.000000
     52          8.504408   1.000000
     53          8.564459   1.000000
     54          8.580636   1.000000
     55          8.724186   1.000000
     56          8.741448   1.000000
     57          8.865970   1.000000
     58          8.897066   1.000000
     59          8.918788   1.000000
     60          8.988894   1.000000
     61          8.991998   1.000000
     62          9.012513   1.000000
     63          9.264383   1.000000
     64          9.271054   1.000000
     65          9.322320   0.999998
     66          9.333184   0.999998
     67          9.441813   0.999930
     68          9.461645   0.999878
     69          9.636144   0.992535
     70          9.745179   0.951850
     71          9.960755   0.555163
     72         10.121783   0.158673
     73         10.336556   0.005891
     74         10.343996   0.005067
     75         11.135969   0.000000
     76         11.159502   0.000000
     77         13.962106   0.000000
     78         13.968352   0.000000
     79         15.266800   0.000000
     80         15.285349   0.000000
     81         15.678620   0.000000
     82         15.682855   0.000000
     83         15.965148   0.000000
     84         15.968030   0.000000
     85         16.377096   0.000000
     86         16.390800   0.000000
     87         17.130041   0.000000
     88         17.133320   0.000000

  0.5000000E+00  0.0000000E+00  0.4473684E+00  0.5555556E-02
      1        -11.934439   1.000000
      2        -11.933990   1.000000
      3        -11.798478   1.000000
      4        -11.798445   1.000000
      5        -11.786554   1.000000
      6        -11.786392   1.000000
      7        -11.763193   1.000000
      8        -11.762965   1.000000
      9        -11.693499   1.000000
     10        -11.693451   1.000000
     11        -11.689245   1.000000
     12        -11.689231   1.000000
     13        -10.915557   1.000000
     14        -10.915026   1.000000
     15        -10.828720   1.000000
     16        -10.828647   1.000000
     17        -10.802562   1.000000
     18        -10.802453   1.000000
     19        -10.784707   1.000000
     20        -10.784577   1.000000
     21        -10.704391   1.000000
     22        -10.704066   1.000000
     23        -10.683211   1.000000
     24        -10.683172   1.000000
     25        -10.658743   1.000000
     26        -10.658682   1.000000
     27        -10.635747   1.000000
     28        -10.635676   1.000000
     29        -10.615857   1.000000
     30        -10.615768   1.000000
     31          1.377061   1.000000
     32          1.379466   1.000000
     33          2.011311   1.000000
     34          2.013299   1.000000
     35          2.542412   1.000000
     36          2.544424   1.000000
     37          3.842282   1.000000
     38          3.843892   1.000000
     39          5.910671   1.000000
     40          5.916040   1.000000
     41          6.259488   1.000000
     42          6.277588   1.000000
     43          6.419819   1.000000
     44          6.433790   1.000000
     45          7.065491   1.000000
     46          7.071009   1.000000
     47          7.119586   1.000000
     48          7.129357   1.000000
     49          7.968151   1.000000
     50          7.994803   1.000000
     51          8.462916   1.000000
     52          8.469985   1.000000
     53          8.563892   1.000000
     54          8.577758   1.000000
     55          8.722420   1.000000
     56          8.761810   1.000000
     57          8.868507   1.000000
     58          8.900297   1.000000
     59          8.930416   1.000000
     60          8.972794   1.000000
     61          8.986447   1.000000
     62          9.014206   1.000000
     63          9.289653   0.999999
     64          9.302356   0.999999
     65          9.339976   0.999997
     66          9.344356   0.999997
     67          9.446414   0.999920
     68          9.464597   0.999867
     69          9.685617   0.981431
     70          9.784466   0.917015
     71          9.936672   0.621342
     72         10.086450   0.226602
     73         10.401680   0.001445
     74         10.404793   0.001345
     75         11.147546   0.000000
     76         11.170342   0.000000
     77         13.905102   0.000000
     78         13.910099   0.000000
     79         15.159043   0.000000
     80         15.173617   0.000000
     81         15.623083   0.000000
     82         15.625157   0.000000
     83         16.038473   0.000000
     84         16.039029   0.000000
     85         16.458290   0.000000
     86         16.470985   0.000000
     87         16.976464   0.000000
     88         16.979395   0.000000

  0.5000000E+00  0.0000000E+00  0.4210526E+00  0.5555556E-02
      1        -11.934528   1.000000
      2        -11.934078   1.000000
      3        -11.798561   1.000000
      4        -11.798527   1.000000
      5        -11.786560   1.000000
      6        -11.786397   1.000000
      7        -11.763177   1.000000
      8        -11.762949   1.000000
      9        -11.693712   1.000000
     10        -11.693665   1.000000
     11        -11.689063   1.000000
     12        -11.689049   1.000000
     13        -10.915747   1.000000
     14        -10.915215   1.000000
     15        -10.828529   1.000000
     16        -10.828456   1.000000
     17        -10.802812   1.000000
     18        -10.802702   1.000000
     19        -10.784486   1.000000
     20        -10.784356   1.000000
     21        -10.704523   1.000000
     22        -10.704200   1.000000
     23        -10.682482   1.000000
     24        -10.682446   1.000000
     25        -10.658812   1.000000
     26        -10.658751   1.000000
     27        -10.636518   1.000000
     28        -10.636446   1.000000
     29        -10.615997   1.000000
     30        -10.615908   1.000000
     31          1.301432   1.000000
     32          1.303663   1.000000
     33          1.874579   1.000000
     34          1.876345   1.000000
     35          2.658685   1.000000
     36          2.661236   1.000000
     37          3.960312   1.000000
     38          3.962328   1.000000
     39          5.939153   1.000000
     40          5.942975   1.000000
     41          6.206726   1.000000
     42          6.215093   1.000000
     43          6.359411   1.000000
     44          6.378011   1.000000
     45          7.095901   1.000000
     46          7.108564   1.000000
     47          7.205676   1.000000
     48          7.210654   1.000000
     49          7.966490   1.000000
     50          7.992401   1.000000
     51          8.426021   1.000000
     52          8.426921   1.000000
     53          8.567578   1.000000
     54          8.578445   1.000000
     55          8.698032   1.000000
     56          8.765187   1.000000
     57          8.863600   1.000000
     58          8.928089   1.000000
     59          8.947983   1.000000
     60          8.969531   1.000000
     61          8.983706   1.000000
     62          9.024991   1.000000
     63          9.301416   0.999999
     64          9.322372   0.999998
     65          9.376203   0.999990
     66          9.383359   0.999988
     67          9.461989   0.999877
     68          9.474429   0.999827
     69          9.760409   0.940071
     70          9.846077   0.828844
     71          9.906295   0.699793
     72         10.048715   0.314457
     73         10.489175   0.000160
     74         10.498007   0.000126
     75         11.168448   0.000000
     76         11.189924   0.000000
     77         13.818253   0.000000
     78         13.821450   0.000000
     79         15.023283   0.000000
     80         15.034548   0.000000
     81         15.523269   0.000000
     82         15.523880   0.000000
     83         16.132446   0.000000
     84         16.135760   0.000000
     85         16.581966   0.000000
     86         16.593292   0.000000
     87         16.833572   0.000000
     88         16.836307   0.000000

  0.5000000E+00  0.0000000E+00  0.3947368E+00  0.5555556E-02
      1        -11.934712   1.000000
      2        -11.934262   1.000000
      3        -11.798555   1.000000
      4        -11.798522   1.000000
      5        -11.786547   1.000000
      6        -11.786385   1.000000
      7        -11.763120   1.000000
      8        -11.762892   1.000000
      9        -11.694006   1.000000
     10        -11.693960   1.000000
     11        -11.688837   1.000000
     12        -11.688822   1.000000
     13        -10.916117   1.000000
     14        -10.915586   1.000000
     15        -10.828284   1.000000
     16        -10.828210   1.000000
     17        -10.802995   1.000000
     18        -10.802883   1.000000
     19        -10.784178   1.000000
     20        -10.784048   1.000000
     21        -10.704561   1.000000
     22        -10.704242   1.000000
     23        -10.681472   1.000000
     24        -10.681439   1.000000
     25        -10.658863   1.000000
     26        -10.658801   1.000000
     27        -10.637510   1.000000
     28        -10.637438   1.000000
     29        -10.616250   1.000000
     30        -10.616161   1.000000
     31          1.207504   1.000000
     32          1.209543   1.000000
     33          1.739806   1.000000
     34          1.741453   1.000000
     35          2.764129   1.000000
     36          2.767235   1.000000
     37          4.112837   1.000000
     38          4.115372   1.000000
     39          5.968749   1.000000
     40          5.969557   1.000000
     41          6.100331   1.000000
     42          6.103702   1.000000
     43          6.370799   1.000000
     44          6.388410   1.000000
     45          7.097711   1.000000
     46          7.110552   1.000000
     47          7.315222   1.000000
     48          7.321121   1.000000
     49          7.963951   1.000000
     50          7.988768   1.000000
     51          8.382534   1.000000
     52          8.384980   1.000000
     53          8.573693   1.000000
     54          8.580308   1.000000
     55          8.666181   1.000000
     56          8.738219   1.000000
     57          8.862169   1.000000
     58          8.924750   1.000000
     59          8.963341   1.000000
     60          8.987711   1.000000
     61          9.008337   1.000000
     62          9.071972   1.000000
     63          9.308230   0.999999
     64          9.329022   0.999998
     65          9.405847   0.999976
     66          9.419919   0.999963
     67          9.506377   0.999598
     68          9.508932   0.999571
     69          9.842841   0.834598
     70          9.884606   0.750851
     71          9.924823   0.652763
     72         10.013430   0.407587
     73         10.601959   0.000006
     74         10.612656   0.000004
     75         11.201275   0.000000
     76         11.220722   0.000000
     77         13.710226   0.000000
     78         13.711314   0.000000
     79         14.876233   0.000000
     80         14.884785   0.000000
     81         15.395685   0.000000
     82         15.399016   0.000000
     83         16.223521   0.000000
     84         16.228726   0.000000
     85         16.693002   0.000000
     86         16.696123   0.000000
     87         16.745760   0.000000
     88         16.754894   0.000000

  0.5000000E+00  0.0000000E+00  0.3684211E+00  0.5555556E-02
      1        -11.934926   1.000000
      2        -11.934475   1.000000
      3        -11.798647   1.000000
      4        -11.798614   1.000000
      5        -11.786573   1.000000
      6        -11.786410   1.000000
      7        -11.763105   1.000000
      8        -11.762877   1.000000
      9        -11.694380   1.000000
     10        -11.694334   1.000000
     11        -11.688582   1.000000
     12        -11.688566   1.000000
     13        -10.916554   1.000000
     14        -10.916024   1.000000
     15        -10.828030   1.000000
     16        -10.827956   1.000000
     17        -10.803342   1.000000
     18        -10.803227   1.000000
     19        -10.783866   1.000000
     20        -10.783736   1.000000
     21        -10.704693   1.000000
     22        -10.704377   1.000000
     23        -10.680345   1.000000
     24        -10.680316   1.000000
     25        -10.658947   1.000000
     26        -10.658885   1.000000
     27        -10.638773   1.000000
     28        -10.638701   1.000000
     29        -10.616600   1.000000
     30        -10.616510   1.000000
     31          1.102423   1.000000
     32          1.104277   1.000000
     33          1.608567   1.000000
     34          1.610148   1.000000
     35          2.856872   1.000000
     36          2.860582   1.000000
     37          4.291857   1.000000
     38          4.295003   1.000000
     39          5.908496   1.000000
     40          5.912310   1.000000
     41          6.080919   1.000000
     42          6.082602   1.000000
     43          6.404849   1.000000
     44          6.419130   1.000000
     45          7.097343   1.000000
     46          7.110000   1.000000
     47          7.416872   1.000000
     48          7.422871   1.000000
     49          7.960285   1.000000
     50          7.983604   1.000000
     51          8.339686   1.000000
     52          8.343351   1.000000
     53          8.573338   1.000000
     54          8.584168   1.000000
     55          8.637561   1.000000
     56          8.701541   1.000000
     57          8.862506   1.000000
     58          8.902407   1.000000
     59          8.963108   1.000000
     60          8.996759   1.000000
     61          9.080881   1.000000
     62          9.149190   1.000000
     63          9.314591   0.999999
     64          9.334169   0.999998
     65          9.416561   0.999967
     66          9.434519   0.999943
     67          9.571737   0.998071
     68          9.583651   0.997486
     69          9.831869   0.853159
     70          9.967883   0.535185
     71          9.971830   0.524084
     72         10.023879   0.379179
     73         10.738039   0.000000
     74         10.748451   0.000000
     75         11.249832   0.000000
     76         11.266412   0.000000
     77         13.587817   0.000000
     78         13.589019   0.000000
     79         14.725044   0.000000
     80         14.731209   0.000000
     81         15.255767   0.000000
     82         15.261793   0.000000
     83         16.293873   0.000000
     84         16.300297   0.000000
     85         16.577000   0.000000
     86         16.579143   0.000000
     87         16.916043   0.000000
     88         16.924679   0.000000

  0.5000000E+00  0.0000000E+00  0.3421053E+00  0.5555556E-02
      1        -11.935161   1.000000
      2        -11.934709   1.000000
      3        -11.798776   1.000000
      4        -11.798742   1.000000
      5        -11.786570   1.000000
      6        -11.786407   1.000000
      7        -11.763078   1.000000
      8        -11.762851   1.000000
      9        -11.694855   1.000000
     10        -11.694810   1.000000
     11        -11.688230   1.000000
     12        -11.688213   1.000000
     13        -10.917032   1.000000
     14        -10.916503   1.000000
     15        -10.827756   1.000000
     16        -10.827681   1.000000
     17        -10.803760   1.000000
     18        -10.803642   1.000000
     19        -10.783440   1.000000
     20        -10.783310   1.000000
     21        -10.704784   1.000000
     22        -10.704470   1.000000
     23        -10.678994   1.000000
     24        -10.678966   1.000000
     25        -10.659118   1.000000
     26        -10.659054   1.000000
     27        -10.640253   1.000000
     28        -10.640180   1.000000
     29        -10.616930   1.000000
     30        -10.616839   1.000000
     31          0.992037   1.000000
     32          0.993720   1.000000
     33          1.482215   1.000000
     34          1.483764   1.000000
     35          2.935746   1.000000
     36          2.940111   1.000000
     37          4.490463   1.000000
     38          4.494299   1.000000
     39          5.780097   1.000000
     40          5.783097   1.000000
     41          6.147306   1.000000
     42          6.147539   1.000000
     43          6.448821   1.000000
     44          6.459197   1.000000
     45          7.096650   1.000000
     46          7.109005   1.000000
     47          7.506699   1.000000
     48          7.511950   1.000000
     49          7.955169   1.000000
     50          7.976515   1.000000
     51          8.299584   1.000000
     52          8.303009   1.000000
     53          8.554154   1.000000
     54          8.586952   1.000000
     55          8.625775   1.000000
     56          8.667294   1.000000
     57          8.863441   1.000000
     58          8.883976   1.000000
     59          8.961757   1.000000
     60          8.998953   1.000000
     61          9.171826   1.000000
     62          9.238194   1.000000
     63          9.323105   0.999998
     64          9.340036   0.999997
     65          9.421021   0.999962
     66          9.439517   0.999934
     67          9.652861   0.989717
     68          9.671831   0.985435
     69          9.800775   0.897948
     70          9.940753   0.610320
     71         10.078894   0.243009
     72         10.117097   0.166825
     73         10.896267   0.000000
     74         10.905381   0.000000
     75         11.319305   0.000000
     76         11.332148   0.000000
     77         13.457411   0.000000
     78         13.460949   0.000000
     79         14.573326   0.000000
     80         14.577277   0.000000
     81         15.111643   0.000000
     82         15.120227   0.000000
     83         16.328508   0.000000
     84         16.335513   0.000000
     85         16.468187   0.000000
     86         16.469881   0.000000
     87         17.098544   0.000000
     88         17.106048   0.000000

  0.5000000E+00  0.0000000E+00  0.3157895E+00  0.5555556E-02
      1        -11.935447   1.000000
      2        -11.934994   1.000000
      3        -11.798966   1.000000
      4        -11.798933   1.000000
      5        -11.786586   1.000000
      6        -11.786423   1.000000
      7        -11.763086   1.000000
      8        -11.762860   1.000000
      9        -11.695402   1.000000
     10        -11.695357   1.000000
     11        -11.687875   1.000000
     12        -11.687857   1.000000
     13        -10.917586   1.000000
     14        -10.917058   1.000000
     15        -10.827527   1.000000
     16        -10.827450   1.000000
     17        -10.804278   1.000000
     18        -10.804157   1.000000
     19        -10.783031   1.000000
     20        -10.782900   1.000000
     21        -10.704914   1.000000
     22        -10.704601   1.000000
     23        -10.677551   1.000000
     24        -10.677525   1.000000
     25        -10.659326   1.000000
     26        -10.659261   1.000000
     27        -10.641915   1.000000
     28        -10.641841   1.000000
     29        -10.617395   1.000000
     30        -10.617304   1.000000
     31          0.880763   1.000000
     32          0.882296   1.000000
     33          1.361869   1.000000
     34          1.363407   1.000000
     35          3.000354   1.000000
     36          3.005408   1.000000
     37          4.702755   1.000000
     38          4.707347   1.000000
     39          5.647920   1.000000
     40          5.649989   1.000000
     41          6.234198   1.000000
     42          6.235973   1.000000
     43          6.500665   1.000000
     44          6.506829   1.000000
     45          7.096211   1.000000
     46          7.108138   1.000000
     47          7.583617   1.000000
     48          7.587398   1.000000
     49          7.948144   1.000000
     50          7.966975   1.000000
     51          8.262854   1.000000
     52          8.264945   1.000000
     53          8.521155   1.000000
     54          8.575329   1.000000
     55          8.629065   1.000000
     56          8.647941   1.000000
     57          8.860340   1.000000
     58          8.875647   1.000000
     59          8.962625   1.000000
     60          9.000003   1.000000
     61          9.269834   1.000000
     62          9.310729   0.999999
     63          9.346797   0.999996
     64          9.360649   0.999994
     65          9.424397   0.999958
     66          9.442210   0.999929
     67          9.729881   0.961740
     68          9.767894   0.933509
     69          9.783115   0.918465
     70          9.908970   0.693182
     71         10.186470   0.072513
     72         10.210351   0.051954
     73         11.075136   0.000000
     74         11.082595   0.000000
     75         11.415678   0.000000
     76         11.424145   0.000000
     77         13.324860   0.000000
     78         13.330764   0.000000
     79         14.422623   0.000000
     80         14.424457   0.000000
     81         14.968049   0.000000
     82         14.979051   0.000000
     83         16.311870   0.000000
     84         16.317946   0.000000
     85         16.374350   0.000000
     86         16.375191   0.000000
     87         17.266003   0.000000
     88         17.272772   0.000000

  0.5000000E+00  0.0000000E+00  0.2894737E+00  0.5555556E-02
      1        -11.935706   1.000000
      2        -11.935253   1.000000
      3        -11.799057   1.000000
      4        -11.799023   1.000000
      5        -11.786574   1.000000
      6        -11.786411   1.000000
      7        -11.763024   1.000000
      8        -11.762798   1.000000
      9        -11.695908   1.000000
     10        -11.695864   1.000000
     11        -11.687472   1.000000
     12        -11.687452   1.000000
     13        -10.918113   1.000000
     14        -10.917586   1.000000
     15        -10.827148   1.000000
     16        -10.827071   1.000000
     17        -10.804638   1.000000
     18        -10.804514   1.000000
     19        -10.782570   1.000000
     20        -10.782439   1.000000
     21        -10.704861   1.000000
     22        -10.704548   1.000000
     23        -10.675976   1.000000
     24        -10.675951   1.000000
     25        -10.659448   1.000000
     26        -10.659380   1.000000
     27        -10.643581   1.000000
     28        -10.643507   1.000000
     29        -10.617865   1.000000
     30        -10.617772   1.000000
     31          0.771886   1.000000
     32          0.773291   1.000000
     33          1.248481   1.000000
     34          1.250023   1.000000
     35          3.051167   1.000000
     36          3.056919   1.000000
     37          4.923535   1.000000
     38          4.928924   1.000000
     39          5.520869   1.000000
     40          5.522161   1.000000
     41          6.331300   1.000000
     42          6.335051   1.000000
     43          6.561964   1.000000
     44          6.563810   1.000000
     45          7.096507   1.000000
     46          7.107839   1.000000
     47          7.647699   1.000000
     48          7.649476   1.000000
     49          7.938620   1.000000
     50          7.954359   1.000000
     51          8.229713   1.000000
     52          8.230039   1.000000
     53          8.483620   1.000000
     54          8.545776   1.000000
     55          8.632695   1.000000
     56          8.652107   1.000000
     57          8.851579   1.000000
     58          8.880017   1.000000
     59          8.965740   1.000000
     60          9.000783   1.000000
     61          9.324994   0.999998
     62          9.337233   0.999997
     63          9.393587   0.999983
     64          9.428997   0.999952
     65          9.439859   0.999934
     66          9.469381   0.999849
     67          9.723188   0.965511
     68          9.857978   0.806606
     69          9.862870   0.796975
     70          9.886717   0.746092
     71         10.283253   0.016109
     72         10.294202   0.013240
     73         11.272651   0.000000
     74         11.278465   0.000000
     75         11.544319   0.000000
     76         11.548377   0.000000
     77         13.193690   0.000000
     78         13.201962   0.000000
     79         14.273526   0.000000
     80         14.273791   0.000000
     81         14.828552   0.000000
     82         14.841847   0.000000
     83         16.241040   0.000000
     84         16.246373   0.000000
     85         16.285122   0.000000
     86         16.286649   0.000000
     87         17.337799   0.000000
     88         17.345857   0.000000

  0.5000000E+00  0.0000000E+00  0.2631579E+00  0.5555556E-02
      1        -11.936062   1.000000
      2        -11.935608   1.000000
      3        -11.799275   1.000000
      4        -11.799241   1.000000
      5        -11.786589   1.000000
      6        -11.786426   1.000000
      7        -11.763036   1.000000
      8        -11.762811   1.000000
      9        -11.696563   1.000000
     10        -11.696519   1.000000
     11        -11.687104   1.000000
     12        -11.687083   1.000000
     13        -10.918796   1.000000
     14        -10.918270   1.000000
     15        -10.826879   1.000000
     16        -10.826800   1.000000
     17        -10.805222   1.000000
     18        -10.805094   1.000000
     19        -10.782161   1.000000
     20        -10.782030   1.000000
     21        -10.704865   1.000000
     22        -10.704552   1.000000
     23        -10.674470   1.000000
     24        -10.674445   1.000000
     25        -10.659723   1.000000
     26        -10.659652   1.000000
     27        -10.645520   1.000000
     28        -10.645445   1.000000
     29        -10.618438   1.000000
     30        -10.618344   1.000000
     31          0.667790   1.000000
     32          0.669085   1.000000
     33          1.142813   1.000000
     34          1.144368   1.000000
     35          3.089336   1.000000
     36          3.095769   1.000000
     37          5.146954   1.000000
     38          5.153074   1.000000
     39          5.402898   1.000000
     40          5.403488   1.000000
     41          6.428343   1.000000
     42          6.433508   1.000000
     43          6.636343   1.000000
     44          6.638146   1.000000
     45          7.098094   1.000000
     46          7.108597   1.000000
     47          7.699148   1.000000
     48          7.699738   1.000000
     49          7.925854   1.000000
     50          7.937971   1.000000
     51          8.198059   1.000000
     52          8.201153   1.000000
     53          8.444542   1.000000
     54          8.507822   1.000000
     55          8.635953   1.000000
     56          8.666399   1.000000
     57          8.845094   1.000000
     58          8.889215   1.000000
     59          8.970607   1.000000
     60          9.001552   1.000000
     61          9.333430   0.999998
     62          9.348281   0.999996
     63          9.422279   0.999960
     64          9.440859   0.999932
     65          9.521768   0.999408
     66          9.585709   0.997370
     67          9.693151   0.978870
     68          9.843763   0.832971
     69          9.967029   0.537584
     70          9.987654   0.479468
     71         10.363864   0.003347
     72         10.364066   0.003333
     73         11.485719   0.000000
     74         11.490135   0.000000
     75         11.707846   0.000000
     76         11.708357   0.000000
     77         13.066069   0.000000
     78         13.076685   0.000000
     79         14.124351   0.000000
     80         14.126522   0.000000
     81         14.695250   0.000000
     82         14.710724   0.000000
     83         16.111085   0.000000
     84         16.118774   0.000000
     85         16.196164   0.000000
     86         16.197310   0.000000
     87         17.088853   0.000000
     88         17.100014   0.000000

  0.5000000E+00  0.0000000E+00  0.2368421E+00  0.5555556E-02
      1        -11.936341   1.000000
      2        -11.935886   1.000000
      3        -11.799419   1.000000
      4        -11.799385   1.000000
      5        -11.786542   1.000000
      6        -11.786379   1.000000
      7        -11.762973   1.000000
      8        -11.762749   1.000000
      9        -11.697183   1.000000
     10        -11.697141   1.000000
     11        -11.686658   1.000000
     12        -11.686635   1.000000
     13        -10.919354   1.000000
     14        -10.918829   1.000000
     15        -10.826467   1.000000
     16        -10.826386   1.000000
     17        -10.805730   1.000000
     18        -10.805597   1.000000
     19        -10.781650   1.000000
     20        -10.781518   1.000000
     21        -10.704658   1.000000
     22        -10.704343   1.000000
     23        -10.672842   1.000000
     24        -10.672818   1.000000
     25        -10.659960   1.000000
     26        -10.659884   1.000000
     27        -10.647377   1.000000
     28        -10.647302   1.000000
     29        -10.618896   1.000000
     30        -10.618800   1.000000
     31          0.570261   1.000000
     32          0.571464   1.000000
     33          1.045554   1.000000
     34          1.047128   1.000000
     35          3.116512   1.000000
     36          3.123588   1.000000
     37          5.277520   1.000000
     38          5.278145   1.000000
     39          5.386367   1.000000
     40          5.392827   1.000000
     41          6.513439   1.000000
     42          6.517941   1.000000
     43          6.733162   1.000000
     44          6.736279   1.000000
     45          7.101776   1.000000
     46          7.111112   1.000000
     47          7.737882   1.000000
     48          7.740849   1.000000
     49          7.909069   1.000000
     50          7.917221   1.000000
     51          8.170165   1.000000
     52          8.176602   1.000000
     53          8.404323   1.000000
     54          8.466381   1.000000
     55          8.639775   1.000000
     56          8.682538   1.000000
     57          8.842389   1.000000
     58          8.901233   1.000000
     59          8.976656   1.000000
     60          9.002476   1.000000
     61          9.340337   0.999997
     62          9.354365   0.999995
     63          9.425988   0.999956
     64          9.442018   0.999930
     65          9.643462   0.991398
     66          9.667253   0.986589
     67          9.719313   0.967552
     68          9.814784   0.879178
     69         10.088750   0.221736
     70         10.110939   0.177939
     71         10.418498   0.000974
     72         10.427279   0.000789
     73         11.710799   0.000000
     74         11.714240   0.000000
     75         11.904054   0.000000
     76         11.905942   0.000000
     77         12.943649   0.000000
     78         12.956554   0.000000
     79         13.976045   0.000000
     80         13.980012   0.000000
     81         14.570128   0.000000
     82         14.587668   0.000000
     83         15.905173   0.000000
     84         15.912623   0.000000
     85         16.128749   0.000000
     86         16.129956   0.000000
     87         16.672488   0.000000
     88         16.684482   0.000000

  0.5000000E+00  0.0000000E+00  0.2105263E+00  0.5555556E-02
      1        -11.936586   1.000000
      2        -11.936130   1.000000
      3        -11.799558   1.000000
      4        -11.799523   1.000000
      5        -11.786531   1.000000
      6        -11.786368   1.000000
      7        -11.762925   1.000000
      8        -11.762701   1.000000
      9        -11.697756   1.000000
     10        -11.697714   1.000000
     11        -11.686237   1.000000
     12        -11.686213   1.000000
     13        -10.919844   1.000000
     14        -10.919321   1.000000
     15        -10.826074   1.000000
     16        -10.825991   1.000000
     17        -10.806226   1.000000
     18        -10.806088   1.000000
     19        -10.781199   1.000000
     20        -10.781067   1.000000
     21        -10.704438   1.000000
     22        -10.704122   1.000000
     23        -10.671267   1.000000
     24        -10.671245   1.000000
     25        -10.660180   1.000000
     26        -10.660099   1.000000
     27        -10.649142   1.000000
     28        -10.649065   1.000000
     29        -10.619443   1.000000
     30        -10.619347   1.000000
     31          0.480597   1.000000
     32          0.481724   1.000000
     33          0.957252   1.000000
     34          0.958849   1.000000
     35          3.134602   1.000000
     36          3.142266   1.000000
     37          5.183069   1.000000
     38          5.183349   1.000000
     39          5.599920   1.000000
     40          5.607529   1.000000
     41          6.581913   1.000000
     42          6.583684   1.000000
     43          6.853724   1.000000
     44          6.855705   1.000000
     45          7.108914   1.000000
     46          7.116582   1.000000
     47          7.767114   1.000000
     48          7.772355   1.000000
     49          7.887558   1.000000
     50          7.891734   1.000000
     51          8.146334   1.000000
     52          8.156207   1.000000
     53          8.362544   1.000000
     54          8.422310   1.000000
     55          8.643465   1.000000
     56          8.698474   1.000000
     57          8.843287   1.000000
     58          8.915193   1.000000
     59          8.983238   1.000000
     60          9.003693   1.000000
     61          9.346608   0.999996
     62          9.359275   0.999994
     63          9.428940   0.999952
     64          9.442819   0.999928
     65          9.625919   0.993901
     66          9.776197   0.925594
     67          9.802471   0.895796
     68          9.866918   0.788794
     69         10.223434   0.042834
     70         10.246597   0.029884
     71         10.459678   0.000350
     72         10.474896   0.000235
     73         11.943998   0.000000
     74         11.946917   0.000000
     75         12.131487   0.000000
     76         12.134246   0.000000
     77         12.827339   0.000000
     78         12.842424   0.000000
     79         13.826636   0.000000
     80         13.832150   0.000000
     81         14.454492   0.000000
     82         14.473979   0.000000
     83         15.645065   0.000000
     84         15.651750   0.000000
     85         16.076541   0.000000
     86         16.077819   0.000000
     87         16.238140   0.000000
     88         16.250419   0.000000

  0.5000000E+00  0.0000000E+00  0.1842105E+00  0.5555556E-02
      1        -11.936906   1.000000
      2        -11.936450   1.000000
      3        -11.799672   1.000000
      4        -11.799638   1.000000
      5        -11.786522   1.000000
      6        -11.786359   1.000000
      7        -11.762868   1.000000
      8        -11.762645   1.000000
      9        -11.698374   1.000000
     10        -11.698332   1.000000
     11        -11.685894   1.000000
     12        -11.685868   1.000000
     13        -10.920468   1.000000
     14        -10.919946   1.000000
     15        -10.825664   1.000000
     16        -10.825579   1.000000
     17        -10.806737   1.000000
     18        -10.806592   1.000000
     19        -10.780789   1.000000
     20        -10.780657   1.000000
     21        -10.704151   1.000000
     22        -10.703833   1.000000
     23        -10.669815   1.000000
     24        -10.669793   1.000000
     25        -10.660460   1.000000
     26        -10.660372   1.000000
     27        -10.650928   1.000000
     28        -10.650849   1.000000
     29        -10.620035   1.000000
     30        -10.619936   1.000000
     31          0.399774   1.000000
     32          0.400838   1.000000
     33          0.878366   1.000000
     34          0.879987   1.000000
     35          3.145544   1.000000
     36          3.153729   1.000000
     37          5.092559   1.000000
     38          5.093134   1.000000
     39          5.810922   1.000000
     40          5.818819   1.000000
     41          6.635893   1.000000
     42          6.637376   1.000000
     43          6.985600   1.000000
     44          6.985982   1.000000
     45          7.123022   1.000000
     46          7.128225   1.000000
     47          7.787908   1.000000
     48          7.795015   1.000000
     49          7.861236   1.000000
     50          7.861914   1.000000
     51          8.126587   1.000000
     52          8.139626   1.000000
     53          8.318488   1.000000
     54          8.375302   1.000000
     55          8.646721   1.000000
     56          8.713235   1.000000
     57          8.847207   1.000000
     58          8.930235   1.000000
     59          8.989604   1.000000
     60          9.005437   1.000000
     61          9.352206   0.999996
     62          9.363378   0.999994
     63          9.432076   0.999947
     64          9.443716   0.999926
     65          9.595761   0.996732
     66          9.751742   0.947024
     67          9.956287   0.567615
     68         10.021200   0.386407
     69         10.371423   0.002845
     70         10.394043   0.001722
     71         10.491949   0.000149
     72         10.510669   0.000088
     73         12.181222   0.000000
     74         12.183826   0.000000
     75         12.381777   0.000000
     76         12.384661   0.000000
     77         12.719231   0.000000
     78         12.736172   0.000000
     79         13.673033   0.000000
     80         13.679692   0.000000
     81         14.349534   0.000000
     82         14.370837   0.000000
     83         15.358183   0.000000
     84         15.363680   0.000000
     85         15.812431   0.000000
     86         15.824957   0.000000
     87         16.040607   0.000000
     88         16.042058   0.000000

  0.5000000E+00  0.0000000E+00  0.1578947E+00  0.5555556E-02
      1        -11.937230   1.000000
      2        -11.936773   1.000000
      3        -11.799758   1.000000
      4        -11.799723   1.000000
      5        -11.786548   1.000000
      6        -11.786385   1.000000
      7        -11.762844   1.000000
      8        -11.762621   1.000000
      9        -11.698911   1.000000
     10        -11.698870   1.000000
     11        -11.685661   1.000000
     12        -11.685634   1.000000
     13        -10.921070   1.000000
     14        -10.920549   1.000000
     15        -10.825347   1.000000
     16        -10.825258   1.000000
     17        -10.807137   1.000000
     18        -10.806987   1.000000
     19        -10.780543   1.000000
     20        -10.780410   1.000000
     21        -10.703908   1.000000
     22        -10.703587   1.000000
     23        -10.668505   1.000000
     24        -10.668482   1.000000
     25        -10.660698   1.000000
     26        -10.660603   1.000000
     27        -10.652521   1.000000
     28        -10.652440   1.000000
     29        -10.620731   1.000000
     30        -10.620630   1.000000
     31          0.328552   1.000000
     32          0.329565   1.000000
     33          0.809284   1.000000
     34          0.810927   1.000000
     35          3.151214   1.000000
     36          3.159848   1.000000
     37          5.012616   1.000000
     38          5.013461   1.000000
     39          6.008400   1.000000
     40          6.015947   1.000000
     41          6.679298   1.000000
     42          6.683762   1.000000
     43          7.096098   1.000000
     44          7.098361   1.000000
     45          7.167246   1.000000
     46          7.169716   1.000000
     47          7.797502   1.000000
     48          7.803565   1.000000
     49          7.832711   1.000000
     50          7.835458   1.000000
     51          8.110662   1.000000
     52          8.126350   1.000000
     53          8.271250   1.000000
     54          8.324635   1.000000
     55          8.649478   1.000000
     56          8.726262   1.000000
     57          8.853369   1.000000
     58          8.945523   1.000000
     59          8.994906   1.000000
     60          9.008052   1.000000
     61          9.356995   0.999995
     62          9.366750   0.999993
     63          9.435435   0.999942
     64          9.444813   0.999924
     65          9.567025   0.998266
     66          9.725035   0.964502
     67         10.125329   0.152681
     68         10.188975   0.070101
     69         10.498256   0.000125
     70         10.512766   0.000083
     71         10.558887   0.000022
     72         10.574008   0.000013
     73         12.415974   0.000000
     74         12.418284   0.000000
     75         12.572748   0.000000
     76         12.586330   0.000000
     77         12.693907   0.000000
     78         12.701391   0.000000
     79         13.511499   0.000000
     80         13.518727   0.000000
     81         14.256274   0.000000
     82         14.279237   0.000000
     83         15.072025   0.000000
     84         15.075765   0.000000
     85         15.409649   0.000000
     86         15.422309   0.000000
     87         16.020217   0.000000
     88         16.022049   0.000000

  0.5000000E+00  0.0000000E+00  0.1315789E+00  0.5555556E-02
      1        -11.937457   1.000000
      2        -11.937000   1.000000
      3        -11.799861   1.000000
      4        -11.799826   1.000000
      5        -11.786532   1.000000
      6        -11.786369   1.000000
      7        -11.762803   1.000000
      8        -11.762580   1.000000
      9        -11.699422   1.000000
     10        -11.699382   1.000000
     11        -11.685352   1.000000
     12        -11.685323   1.000000
     13        -10.921507   1.000000
     14        -10.920987   1.000000
     15        -10.825000   1.000000
     16        -10.824909   1.000000
     17        -10.807570   1.000000
     18        -10.807414   1.000000
     19        -10.780216   1.000000
     20        -10.780083   1.000000
     21        -10.703610   1.000000
     22        -10.703286   1.000000
     23        -10.667266   1.000000
     24        -10.667239   1.000000
     25        -10.660986   1.000000
     26        -10.660886   1.000000
     27        -10.653985   1.000000
     28        -10.653900   1.000000
     29        -10.621180   1.000000
     30        -10.621078   1.000000
     31          0.267498   1.000000
     32          0.268469   1.000000
     33          0.750335   1.000000
     34          0.752000   1.000000
     35          3.153267   1.000000
     36          3.162276   1.000000
     37          4.944129   1.000000
     38          4.945194   1.000000
     39          6.186365   1.000000
     40          6.192595   1.000000
     41          6.715919   1.000000
     42          6.722929   1.000000
     43          7.139330   1.000000
     44          7.141361   1.000000
     45          7.283831   1.000000
     46          7.288276   1.000000
     47          7.773862   1.000000
     48          7.776347   1.000000
     49          7.825709   1.000000
     50          7.834607   1.000000
     51          8.098092   1.000000
     52          8.115839   1.000000
     53          8.219903   1.000000
     54          8.269504   1.000000
     55          8.651729   1.000000
     56          8.737247   1.000000
     57          8.860842   1.000000
     58          8.960267   1.000000
     59          8.998582   1.000000
     60          9.011641   1.000000
     61          9.360958   0.999994
     62          9.369554   0.999992
     63          9.438893   0.999936
     64          9.446177   0.999921
     65          9.540725   0.999061
     66          9.700475   0.976102
     67         10.305579   0.010737
     68         10.367883   0.003071
     69         10.518528   0.000071
     70         10.544755   0.000033
     71         10.724869   0.000000
     72         10.749654   0.000000
     73         12.484029   0.000000
     74         12.503803   0.000000
     75         12.645807   0.000000
     76         12.647581   0.000000
     77         12.953409   0.000000
     78         12.955832   0.000000
     79         13.340965   0.000000
     80         13.348016   0.000000
     81         14.175559   0.000000
     82         14.200001   0.000000
     83         14.809506   0.000000
     84         14.810660   0.000000
     85         15.038881   0.000000
     86         15.051340   0.000000
     87         16.019342   0.000000
     88         16.021818   0.000000

  0.5000000E+00  0.0000000E+00  0.1052632E+00  0.5555556E-02
      1        -11.937673   1.000000
      2        -11.937215   1.000000
      3        -11.799948   1.000000
      4        -11.799913   1.000000
      5        -11.786520   1.000000
      6        -11.786357   1.000000
      7        -11.762765   1.000000
      8        -11.762543   1.000000
      9        -11.699866   1.000000
     10        -11.699826   1.000000
     11        -11.685113   1.000000
     12        -11.685083   1.000000
     13        -10.921920   1.000000
     14        -10.921401   1.000000
     15        -10.824694   1.000000
     16        -10.824599   1.000000
     17        -10.807951   1.000000
     18        -10.807789   1.000000
     19        -10.779942   1.000000
     20        -10.779810   1.000000
     21        -10.703326   1.000000
     22        -10.702999   1.000000
     23        -10.666235   1.000000
     24        -10.666201   1.000000
     25        -10.661220   1.000000
     26        -10.661119   1.000000
     27        -10.655260   1.000000
     28        -10.655171   1.000000
     29        -10.621620   1.000000
     30        -10.621517   1.000000
     31          0.217037   1.000000
     32          0.217977   1.000000
     33          0.701771   1.000000
     34          0.703455   1.000000
     35          3.153091   1.000000
     36          3.162403   1.000000
     37          4.887578   1.000000
     38          4.888816   1.000000
     39          6.338752   1.000000
     40          6.342428   1.000000
     41          6.746291   1.000000
     42          6.755387   1.000000
     43          7.169925   1.000000
     44          7.178601   1.000000
     45          7.414056   1.000000
     46          7.421188   1.000000
     47          7.728240   1.000000
     48          7.731691   1.000000
     49          7.830694   1.000000
     50          7.841651   1.000000
     51          8.088213   1.000000
     52          8.107518   1.000000
     53          8.163596   1.000000
     54          8.209116   1.000000
     55          8.653511   1.000000
     56          8.746102   1.000000
     57          8.868632   1.000000
     58          8.973750   1.000000
     59          9.000907   1.000000
     60          9.015509   1.000000
     61          9.364001   0.999993
     62          9.371848   0.999992
     63          9.442129   0.999929
     64          9.447800   0.999917
     65          9.517693   0.999465
     66          9.679000   0.983456
     67         10.492110   0.000148
     68         10.530038   0.000051
     69         10.548043   0.000030
     70         10.565775   0.000017
     71         10.919105   0.000000
     72         10.944626   0.000000
     73         12.376113   0.000000
     74         12.397531   0.000000
     75         12.834669   0.000000
     76         12.836058   0.000000
     77         13.147697   0.000000
     78         13.153086   0.000000
     79         13.262714   0.000000
     80         13.265124   0.000000
     81         14.108032   0.000000
     82         14.133728   0.000000
     83         14.580532   0.000000
     84         14.583788   0.000000
     85         14.716598   0.000000
     86         14.727500   0.000000
     87         16.040758   0.000000
     88         16.044207   0.000000

  0.5000000E+00  0.0000000E+00  0.7894737E-01  0.5555556E-02
      1        -11.937839   1.000000
      2        -11.937380   1.000000
      3        -11.800026   1.000000
      4        -11.799990   1.000000
      5        -11.786473   1.000000
      6        -11.786310   1.000000
      7        -11.762725   1.000000
      8        -11.762503   1.000000
      9        -11.700246   1.000000
     10        -11.700207   1.000000
     11        -11.684897   1.000000
     12        -11.684866   1.000000
     13        -10.922230   1.000000
     14        -10.921711   1.000000
     15        -10.824418   1.000000
     16        -10.824320   1.000000
     17        -10.808273   1.000000
     18        -10.808106   1.000000
     19        -10.779674   1.000000
     20        -10.779541   1.000000
     21        -10.703059   1.000000
     22        -10.702730   1.000000
     23        -10.665486   1.000000
     24        -10.665436   1.000000
     25        -10.661305   1.000000
     26        -10.661210   1.000000
     27        -10.656359   1.000000
     28        -10.656267   1.000000
     29        -10.621920   1.000000
     30        -10.621815   1.000000
     31          0.177489   1.000000
     32          0.178405   1.000000
     33          0.663797   1.000000
     34          0.665496   1.000000
     35          3.151815   1.000000
     36          3.161359   1.000000
     37          4.843287   1.000000
     38          4.844655   1.000000
     39          6.459814   1.000000
     40          6.459945   1.000000
     41          6.770377   1.000000
     42          6.781093   1.000000
     43          7.208271   1.000000
     44          7.225784   1.000000
     45          7.539157   1.000000
     46          7.548976   1.000000
     47          7.676512   1.000000
     48          7.678717   1.000000
     49          7.835222   1.000000
     50          7.847202   1.000000
     51          8.078596   1.000000
     52          8.098571   1.000000
     53          8.105152   1.000000
     54          8.143339   1.000000
     55          8.654857   1.000000
     56          8.752862   1.000000
     57          8.875789   1.000000
     58          8.985304   1.000000
     59          9.002473   1.000000
     60          9.018734   1.000000
     61          9.366165   0.999993
     62          9.373686   0.999991
     63          9.444809   0.999924
     64          9.449631   0.999913
     65          9.498692   0.999670
     66          9.661369   0.987955
     67         10.534746   0.000044
     68         10.564581   0.000018
     69         10.684025   0.000000
     70         10.745059   0.000000
     71         11.126170   0.000000
     72         11.152081   0.000000
     73         12.255191   0.000000
     74         12.277301   0.000000
     75         12.854282   0.000000
     76         12.859699   0.000000
     77         13.122474   0.000000
     78         13.123414   0.000000
     79         13.528684   0.000000
     80         13.530545   0.000000
     81         14.053886   0.000000
     82         14.080477   0.000000
     83         14.370439   0.000000
     84         14.380933   0.000000
     85         14.481888   0.000000
     86         14.487926   0.000000
     87         16.086866   0.000000
     88         16.091708   0.000000

  0.5000000E+00  0.0000000E+00  0.5263158E-01  0.5555556E-02
      1        -11.937951   1.000000
      2        -11.937492   1.000000
      3        -11.800077   1.000000
      4        -11.800042   1.000000
      5        -11.786362   1.000000
      6        -11.786199   1.000000
      7        -11.762669   1.000000
      8        -11.762447   1.000000
      9        -11.700515   1.000000
     10        -11.700476   1.000000
     11        -11.684721   1.000000
     12        -11.684690   1.000000
     13        -10.922441   1.000000
     14        -10.921922   1.000000
     15        -10.824152   1.000000
     16        -10.824053   1.000000
     17        -10.808512   1.000000
     18        -10.808340   1.000000
     19        -10.779402   1.000000
     20        -10.779269   1.000000
     21        -10.702797   1.000000
     22        -10.702466   1.000000
     23        -10.665039   1.000000
     24        -10.664967   1.000000
     25        -10.661138   1.000000
     26        -10.661055   1.000000
     27        -10.657231   1.000000
     28        -10.657134   1.000000
     29        -10.622134   1.000000
     30        -10.622027   1.000000
     31          0.149086   1.000000
     32          0.149985   1.000000
     33          0.636567   1.000000
     34          0.638277   1.000000
     35          3.150301   1.000000
     36          3.160008   1.000000
     37          4.811493   1.000000
     38          4.812950   1.000000
     39          6.542038   1.000000
     40          6.545937   1.000000
     41          6.787929   1.000000
     42          6.799796   1.000000
     43          7.254508   1.000000
     44          7.283285   1.000000
     45          7.618562   1.000000
     46          7.622138   1.000000
     47          7.657406   1.000000
     48          7.668418   1.000000
     49          7.838392   1.000000
     50          7.850914   1.000000
     51          8.027424   1.000000
     52          8.065392   1.000000
     53          8.079867   1.000000
     54          8.100383   1.000000
     55          8.655798   1.000000
     56          8.757609   1.000000
     57          8.881511   1.000000
     58          8.994228   1.000000
     59          9.003751   1.000000
     60          9.020821   1.000000
     61          9.367556   0.999993
     62          9.375043   0.999991
     63          9.446740   0.999919
     64          9.451439   0.999908
     65          9.484407   0.999773
     66          9.648244   0.990575
     67         10.539179   0.000039
     68         10.569945   0.000015
     69         10.858452   0.000000
     70         10.920338   0.000000
     71         11.340364   0.000000
     72         11.366841   0.000000
     73         12.116344   0.000000
     74         12.138349   0.000000
     75         12.693207   0.000000
     76         12.700583   0.000000
     77         13.232683   0.000000
     78         13.233923   0.000000
     79         13.773342   0.000000
     80         13.776663   0.000000
     81         14.012796   0.000000
     82         14.039261   0.000000
     83         14.183297   0.000000
     84         14.194725   0.000000
     85         14.354285   0.000000
     86         14.359308   0.000000
     87         16.155714   0.000000
     88         16.162288   0.000000

  0.5000000E+00  0.0000000E+00  0.2631579E-01  0.5555556E-02
      1        -11.937942   1.000000
      2        -11.937483   1.000000
      3        -11.800060   1.000000
      4        -11.800025   1.000000
      5        -11.786345   1.000000
      6        -11.786182   1.000000
      7        -11.762607   1.000000
      8        -11.762385   1.000000
      9        -11.700568   1.000000
     10        -11.700530   1.000000
     11        -11.684598   1.000000
     12        -11.684566   1.000000
     13        -10.922463   1.000000
     14        -10.921945   1.000000
     15        -10.823897   1.000000
     16        -10.823796   1.000000
     17        -10.808591   1.000000
     18        -10.808417   1.000000
     19        -10.779261   1.000000
     20        -10.779128   1.000000
     21        -10.702621   1.000000
     22        -10.702288   1.000000
     23        -10.664712   1.000000
     24        -10.664624   1.000000
     25        -10.660830   1.000000
     26        -10.660753   1.000000
     27        -10.657667   1.000000
     28        -10.657565   1.000000
     29        -10.622257   1.000000
     30        -10.622150   1.000000
     31          0.131989   1.000000
     32          0.132879   1.000000
     33          0.620184   1.000000
     34          0.621901   1.000000
     35          3.149155   1.000000
     36          3.158958   1.000000
     37          4.792356   1.000000
     38          4.793867   1.000000
     39          6.589541   1.000000
     40          6.596382   1.000000
     41          6.798630   1.000000
     42          6.811182   1.000000
     43          7.299541   1.000000
     44          7.342530   1.000000
     45          7.562199   1.000000
     46          7.574622   1.000000
     47          7.763268   1.000000
     48          7.773812   1.000000
     49          7.840922   1.000000
     50          7.853208   1.000000
     51          7.950011   1.000000
     52          7.988896   1.000000
     53          8.075582   1.000000
     54          8.096491   1.000000
     55          8.656363   1.000000
     56          8.760430   1.000000
     57          8.885210   1.000000
     58          8.999544   1.000000
     59          9.005169   1.000000
     60          9.021748   1.000000
     61          9.368337   0.999992
     62          9.375897   0.999990
     63          9.447944   0.999917
     64          9.452841   0.999904
     65          9.475407   0.999822
     66          9.640128   0.991933
     67         10.541457   0.000036
     68         10.572755   0.000014
     69         10.991138   0.000000
     70         11.054759   0.000000
     71         11.553447   0.000000
     72         11.581697   0.000000
     73         11.955135   0.000000
     74         11.975415   0.000000
     75         12.549647   0.000000
     76         12.558992   0.000000
     77         13.317274   0.000000
     78         13.319270   0.000000
     79         13.917790   0.000000
     80         13.929518   0.000000
     81         13.993672   0.000000
     82         14.017770   0.000000
     83         14.083734   0.000000
     84         14.087453   0.000000
     85         14.300213   0.000000
     86         14.305328   0.000000
     87         16.020702   0.000000
     88         16.026950   0.000000

  0.5000000E+00  0.0000000E+00  0.2775558E-16  0.5555556E-02
      1        -11.937966   1.000000
      2        -11.937507   1.000000
      3        -11.800069   1.000000
      4        -11.800034   1.000000
      5        -11.786343   1.000000
      6        -11.786180   1.000000
      7        -11.762601   1.000000
      8        -11.762379   1.000000
      9        -11.700620   1.000000
     10        -11.700582   1.000000
     11        -11.684569   1.000000
     12        -11.684537   1.000000
     13        -10.922510   1.000000
     14        -10.921992   1.000000
     15        -10.823853   1.000000
     16        -10.823752   1.000000
     17        -10.808640   1.000000
     18        -10.808466   1.000000
     19        -10.779228   1.000000
     20        -10.779096   1.000000
     21        -10.702576   1.000000
     22        -10.702243   1.000000
     23        -10.664666   1.000000
     24        -10.664572   1.000000
     25        -10.660695   1.000000
     26        -10.660618   1.000000
     27        -10.657910   1.000000
     28        -10.657804   1.000000
     29        -10.622311   1.000000
     30        -10.622205   1.000000
     31          0.126280   1.000000
     32          0.127166   1.000000
     33          0.614717   1.000000
     34          0.616436   1.000000
     35          3.148734   1.000000
     36          3.158570   1.000000
     37          4.785965   1.000000
     38          4.787493   1.000000
     39          6.604933   1.000000
     40          6.612847   1.000000
     41          6.802228   1.000000
     42          6.815006   1.000000
     43          7.320737   1.000000
     44          7.374255   1.000000
     45          7.531736   1.000000
     46          7.552999   1.000000
     47          7.829885   1.000000
     48          7.841826   1.000000
     49          7.853707   1.000000
     50          7.866292   1.000000
     51          7.867443   1.000000
     52          7.931563   1.000000
     53          8.074488   1.000000
     54          8.095507   1.000000
     55          8.656546   1.000000
     56          8.761360   1.000000
     57          8.886474   1.000000
     58          9.001007   1.000000
     59          9.006096   1.000000
     60          9.021927   1.000000
     61          9.368577   0.999992
     62          9.376178   0.999990
     63          9.448357   0.999916
     64          9.453378   0.999903
     65          9.472297   0.999836
     66          9.637386   0.992352
     67         10.542164   0.000036
     68         10.573634   0.000014
     69         11.042705   0.000000
     70         11.107408   0.000000
     71         11.723503   0.000000
     72         11.780735   0.000000
     73         11.794811   0.000000
     74         11.803568   0.000000
     75         12.492301   0.000000
     76         12.502825   0.000000
     77         13.347167   0.000000
     78         13.349414   0.000000
     79         13.923642   0.000000
     80         13.937766   0.000000
     81         14.005164   0.000000
     82         14.026600   0.000000
     83         14.076111   0.000000
     84         14.077949   0.000000
     85         14.292643   0.000000
     86         14.297126   0.000000
     87         15.934304   0.000000
     88         15.941089   0.000000

  0.3333333E+00  0.3333333E+00  0.5000000E+00  0.5555556E-02
      1        -11.933800   1.000000
      2        -11.933368   1.000000
      3        -11.797790   1.000000
      4        -11.797684   1.000000
      5        -11.787187   1.000000
      6        -11.787119   1.000000
      7        -11.762729   1.000000
      8        -11.762511   1.000000
      9        -11.695448   1.000000
     10        -11.695402   1.000000
     11        -11.688547   1.000000
     12        -11.688542   1.000000
     13        -10.914101   1.000000
     14        -10.913608   1.000000
     15        -10.829577   1.000000
     16        -10.829498   1.000000
     17        -10.798129   1.000000
     18        -10.798047   1.000000
     19        -10.788108   1.000000
     20        -10.787932   1.000000
     21        -10.701673   1.000000
     22        -10.701641   1.000000
     23        -10.695042   1.000000
     24        -10.694691   1.000000
     25        -10.652912   1.000000
     26        -10.652759   1.000000
     27        -10.631355   1.000000
     28        -10.631278   1.000000
     29        -10.613800   1.000000
     30        -10.613712   1.000000
     31          1.908262   1.000000
     32          1.911323   1.000000
     33          1.953644   1.000000
     34          1.956150   1.000000
     35          2.465614   1.000000
     36          2.471023   1.000000
     37          4.412977   1.000000
     38          4.414745   1.000000
     39          4.484473   1.000000
     40          4.490147   1.000000
     41          4.853204   1.000000
     42          4.854401   1.000000
     43          7.260146   1.000000
     44          7.268255   1.000000
     45          7.386725   1.000000
     46          7.437335   1.000000
     47          7.807482   1.000000
     48          7.814226   1.000000
     49          7.892600   1.000000
     50          7.908676   1.000000
     51          8.083799   1.000000
     52          8.087801   1.000000
     53          8.497679   1.000000
     54          8.506010   1.000000
     55          8.565817   1.000000
     56          8.613904   1.000000
     57          8.965720   1.000000
     58          8.974432   1.000000
     59          9.009376   1.000000
     60          9.014201   1.000000
     61          9.128366   1.000000
     62          9.167042   1.000000
     63          9.281112   1.000000
     64          9.310579   0.999999
     65          9.332977   0.999998
     66          9.382590   0.999988
     67          9.401660   0.999979
     68          9.409749   0.999973
     69          9.500834   0.999652
     70          9.566677   0.998279
     71          9.820630   0.870667
     72          9.877866   0.765722
     73         11.271875   0.000000
     74         11.274537   0.000000
     75         13.342968   0.000000
     76         13.347407   0.000000
     77         13.430182   0.000000
     78         13.438848   0.000000
     79         13.522112   0.000000
     80         13.528708   0.000000
     81         13.539017   0.000000
     82         13.545786   0.000000
     83         14.596772   0.000000
     84         14.606258   0.000000
     85         17.522838   0.000000
     86         17.523057   0.000000
     87         19.610506   0.000000
     88         19.635098   0.000000

  0.3333333E+00  0.3333333E+00  0.4736842E+00  0.5555556E-02
      1        -11.933839   1.000000
      2        -11.933406   1.000000
      3        -11.797809   1.000000
      4        -11.797702   1.000000
      5        -11.787216   1.000000
      6        -11.787148   1.000000
      7        -11.762752   1.000000
      8        -11.762534   1.000000
      9        -11.695466   1.000000
     10        -11.695419   1.000000
     11        -11.688569   1.000000
     12        -11.688564   1.000000
     13        -10.914167   1.000000
     14        -10.913675   1.000000
     15        -10.829673   1.000000
     16        -10.829593   1.000000
     17        -10.798111   1.000000
     18        -10.798029   1.000000
     19        -10.788075   1.000000
     20        -10.787900   1.000000
     21        -10.701943   1.000000
     22        -10.701903   1.000000
     23        -10.694789   1.000000
     24        -10.694447   1.000000
     25        -10.653027   1.000000
     26        -10.652873   1.000000
     27        -10.631364   1.000000
     28        -10.631287   1.000000
     29        -10.613894   1.000000
     30        -10.613805   1.000000
     31          1.894802   1.000000
     32          1.897776   1.000000
     33          1.939644   1.000000
     34          1.942097   1.000000
     35          2.453716   1.000000
     36          2.459063   1.000000
     37          4.433532   1.000000
     38          4.435402   1.000000
     39          4.504542   1.000000
     40          4.510092   1.000000
     41          4.870648   1.000000
     42          4.871963   1.000000
     43          7.258779   1.000000
     44          7.266849   1.000000
     45          7.384495   1.000000
     46          7.435107   1.000000
     47          7.809017   1.000000
     48          7.816137   1.000000
     49          7.891540   1.000000
     50          7.907056   1.000000
     51          8.083965   1.000000
     52          8.088578   1.000000
     53          8.500060   1.000000
     54          8.508888   1.000000
     55          8.570175   1.000000
     56          8.617876   1.000000
     57          8.950274   1.000000
     58          8.955835   1.000000
     59          9.010430   1.000000
     60          9.015673   1.000000
     61          9.123050   1.000000
     62          9.155495   1.000000
     63          9.285410   1.000000
     64          9.317428   0.999999
     65          9.334784   0.999998
     66          9.384551   0.999987
     67          9.407430   0.999975
     68          9.418801   0.999964
     69          9.518499   0.999454
     70          9.580751   0.997641
     71          9.820264   0.871211
     72          9.877518   0.766475
     73         11.278378   0.000000
     74         11.281202   0.000000
     75         13.218334   0.000000
     76         13.223344   0.000000
     77         13.289354   0.000000
     78         13.296266   0.000000
     79         13.653781   0.000000
     80         13.658848   0.000000
     81         13.686792   0.000000
     82         13.692708   0.000000
     83         14.610019   0.000000
     84         14.619444   0.000000
     85         17.513151   0.000000
     86         17.513452   0.000000
     87         19.592287   0.000000
     88         19.619500   0.000000

  0.3333333E+00  0.3333333E+00  0.4473684E+00  0.5555556E-02
      1        -11.933891   1.000000
      2        -11.933458   1.000000
      3        -11.797812   1.000000
      4        -11.797705   1.000000
      5        -11.787230   1.000000
      6        -11.787161   1.000000
      7        -11.762704   1.000000
      8        -11.762486   1.000000
      9        -11.695466   1.000000
     10        -11.695420   1.000000
     11        -11.688538   1.000000
     12        -11.688533   1.000000
     13        -10.914325   1.000000
     14        -10.913833   1.000000
     15        -10.829652   1.000000
     16        -10.829571   1.000000
     17        -10.797935   1.000000
     18        -10.797852   1.000000
     19        -10.787919   1.000000
     20        -10.787745   1.000000
     21        -10.702414   1.000000
     22        -10.702352   1.000000
     23        -10.694043   1.000000
     24        -10.693723   1.000000
     25        -10.653267   1.000000
     26        -10.653114   1.000000
     27        -10.631313   1.000000
     28        -10.631237   1.000000
     29        -10.614104   1.000000
     30        -10.614015   1.000000
     31          1.856009   1.000000
     32          1.858760   1.000000
     33          1.899141   1.000000
     34          1.901472   1.000000
     35          2.419275   1.000000
     36          2.424481   1.000000
     37          4.493334   1.000000
     38          4.495479   1.000000
     39          4.562980   1.000000
     40          4.568212   1.000000
     41          4.921501   1.000000
     42          4.923070   1.000000
     43          7.254926   1.000000
     44          7.262904   1.000000
     45          7.379059   1.000000
     46          7.429376   1.000000
     47          7.813209   1.000000
     48          7.821118   1.000000
     49          7.891124   1.000000
     50          7.905300   1.000000
     51          8.083138   1.000000
     52          8.088906   1.000000
     53          8.506534   1.000000
     54          8.515938   1.000000
     55          8.579389   1.000000
     56          8.626908   1.000000
     57          8.906537   1.000000
     58          8.909177   1.000000
     59          9.016288   1.000000
     60          9.021066   1.000000
     61          9.111166   1.000000
     62          9.131823   1.000000
     63          9.292349   0.999999
     64          9.328812   0.999998
     65          9.343446   0.999997
     66          9.387640   0.999986
     67          9.423689   0.999959
     68          9.443927   0.999926
     69          9.566811   0.998274
     70          9.621094   0.994465
     71          9.819399   0.872493
     72          9.876897   0.767817
     73         11.298000   0.000000
     74         11.301246   0.000000
     75         13.038239   0.000000
     76         13.044704   0.000000
     77         13.109476   0.000000
     78         13.117056   0.000000
     79         13.850855   0.000000
     80         13.855722   0.000000
     81         13.885608   0.000000
     82         13.891645   0.000000
     83         14.649550   0.000000
     84         14.658812   0.000000
     85         17.485336   0.000000
     86         17.485786   0.000000
     87         19.507233   0.000000
     88         19.531732   0.000000

  0.3333333E+00  0.3333333E+00  0.4210526E+00  0.5555556E-02
      1        -11.934077   1.000000
      2        -11.933644   1.000000
      3        -11.797866   1.000000
      4        -11.797759   1.000000
      5        -11.787294   1.000000
      6        -11.787226   1.000000
      7        -11.762690   1.000000
      8        -11.762472   1.000000
      9        -11.695570   1.000000
     10        -11.695523   1.000000
     11        -11.688586   1.000000
     12        -11.688580   1.000000
     13        -10.914735   1.000000
     14        -10.914244   1.000000
     15        -10.829790   1.000000
     16        -10.829710   1.000000
     17        -10.797754   1.000000
     18        -10.797669   1.000000
     19        -10.787725   1.000000
     20        -10.787554   1.000000
     21        -10.703174   1.000000
     22        -10.703088   1.000000
     23        -10.693074   1.000000
     24        -10.692775   1.000000
     25        -10.653746   1.000000
     26        -10.653595   1.000000
     27        -10.631335   1.000000
     28        -10.631260   1.000000
     29        -10.614561   1.000000
     30        -10.614471   1.000000
     31          1.795731   1.000000
     32          1.798169   1.000000
     33          1.836381   1.000000
     34          1.838543   1.000000
     35          2.365613   1.000000
     36          2.370621   1.000000
     37          4.587742   1.000000
     38          4.590309   1.000000
     39          4.655489   1.000000
     40          4.660250   1.000000
     41          5.001991   1.000000
     42          5.003928   1.000000
     43          7.248788   1.000000
     44          7.256617   1.000000
     45          7.370861   1.000000
     46          7.420638   1.000000
     47          7.819297   1.000000
     48          7.828280   1.000000
     49          7.891048   1.000000
     50          7.903228   1.000000
     51          8.081311   1.000000
     52          8.088604   1.000000
     53          8.516743   1.000000
     54          8.526751   1.000000
     55          8.592939   1.000000
     56          8.640601   1.000000
     57          8.834429   1.000000
     58          8.843448   1.000000
     59          9.027212   1.000000
     60          9.031094   1.000000
     61          9.101800   1.000000
     62          9.112968   1.000000
     63          9.294700   0.999999
     64          9.344605   0.999997
     65          9.360347   0.999994
     66          9.397392   0.999981
     67          9.449296   0.999913
     68          9.476053   0.999819
     69          9.633376   0.992929
     70          9.680185   0.983108
     71          9.818312   0.874089
     72          9.876437   0.768811
     73         11.329177   0.000000
     74         11.333070   0.000000
     75         12.859550   0.000000
     76         12.866496   0.000000
     77         12.934736   0.000000
     78         12.942830   0.000000
     79         14.058081   0.000000
     80         14.063032   0.000000
     81         14.091332   0.000000
     82         14.097755   0.000000
     83         14.715369   0.000000
     84         14.724380   0.000000
     85         17.440705   0.000000
     86         17.441358   0.000000
     87         19.372588   0.000000
     88         19.390522   0.000000

  0.3333333E+00  0.3333333E+00  0.3947368E+00  0.5555556E-02
      1        -11.934131   1.000000
      2        -11.933699   1.000000
      3        -11.797910   1.000000
      4        -11.797803   1.000000
      5        -11.787359   1.000000
      6        -11.787290   1.000000
      7        -11.762632   1.000000
      8        -11.762414   1.000000
      9        -11.695554   1.000000
     10        -11.695508   1.000000
     11        -11.688487   1.000000
     12        -11.688480   1.000000
     13        -10.914943   1.000000
     14        -10.914452   1.000000
     15        -10.829851   1.000000
     16        -10.829771   1.000000
     17        -10.797430   1.000000
     18        -10.797345   1.000000
     19        -10.787368   1.000000
     20        -10.787201   1.000000
     21        -10.703862   1.000000
     22        -10.703754   1.000000
     23        -10.691934   1.000000
     24        -10.691655   1.000000
     25        -10.654215   1.000000
     26        -10.654066   1.000000
     27        -10.631240   1.000000
     28        -10.631167   1.000000
     29        -10.614947   1.000000
     30        -10.614857   1.000000
     31          1.719096   1.000000
     32          1.721177   1.000000
     33          1.756925   1.000000
     34          1.758898   1.000000
     35          2.297216   1.000000
     36          2.301999   1.000000
     37          4.710605   1.000000
     38          4.713715   1.000000
     39          4.776303   1.000000
     40          4.780485   1.000000
     41          5.106954   1.000000
     42          5.109346   1.000000
     43          7.240720   1.000000
     44          7.248336   1.000000
     45          7.360481   1.000000
     46          7.409522   1.000000
     47          7.826315   1.000000
     48          7.836469   1.000000
     49          7.890913   1.000000
     50          7.900613   1.000000
     51          8.078508   1.000000
     52          8.087483   1.000000
     53          8.529490   1.000000
     54          8.540193   1.000000
     55          8.609029   1.000000
     56          8.657254   1.000000
     57          8.752401   1.000000
     58          8.764378   1.000000
     59          9.040551   1.000000
     60          9.044035   1.000000
     61          9.097026   1.000000
     62          9.102164   1.000000
     63          9.290551   0.999999
     64          9.349337   0.999996
     65          9.394070   0.999983
     66          9.426540   0.999955
     67          9.485548   0.999766
     68          9.515134   0.999499
     69          9.708322   0.972803
     70          9.748767   0.949257
     71          9.818105   0.874392
     72          9.877675   0.766136
     73         11.369730   0.000000
     74         11.374442   0.000000
     75         12.687038   0.000000
     76         12.694160   0.000000
     77         12.767450   0.000000
     78         12.776026   0.000000
     79         14.269712   0.000000
     80         14.274894   0.000000
     81         14.300865   0.000000
     82         14.307867   0.000000
     83         14.807460   0.000000
     84         14.816151   0.000000
     85         17.382000   0.000000
     86         17.382892   0.000000
     87         19.174725   0.000000
     88         19.197745   0.000000

  0.3333333E+00  0.3333333E+00  0.3684211E+00  0.5555556E-02
      1        -11.934347   1.000000
      2        -11.933914   1.000000
      3        -11.797987   1.000000
      4        -11.797879   1.000000
      5        -11.787445   1.000000
      6        -11.787377   1.000000
      7        -11.762595   1.000000
      8        -11.762377   1.000000
      9        -11.695659   1.000000
     10        -11.695612   1.000000
     11        -11.688480   1.000000
     12        -11.688472   1.000000
     13        -10.915454   1.000000
     14        -10.914964   1.000000
     15        -10.830046   1.000000
     16        -10.829966   1.000000
     17        -10.797095   1.000000
     18        -10.797009   1.000000
     19        -10.786975   1.000000
     20        -10.786813   1.000000
     21        -10.704652   1.000000
     22        -10.704528   1.000000
     23        -10.690722   1.000000
     24        -10.690457   1.000000
     25        -10.654861   1.000000
     26        -10.654714   1.000000
     27        -10.631240   1.000000
     28        -10.631170   1.000000
     29        -10.615579   1.000000
     30        -10.615488   1.000000
     31          1.631331   1.000000
     32          1.633052   1.000000
     33          1.666340   1.000000
     34          1.668125   1.000000
     35          2.218693   1.000000
     36          2.223247   1.000000
     37          4.855394   1.000000
     38          4.859137   1.000000
     39          4.919199   1.000000
     40          4.922733   1.000000
     41          5.230706   1.000000
     42          5.233618   1.000000
     43          7.231104   1.000000
     44          7.238428   1.000000
     45          7.348440   1.000000
     46          7.396577   1.000000
     47          7.833200   1.000000
     48          7.844372   1.000000
     49          7.890283   1.000000
     50          7.897258   1.000000
     51          8.074780   1.000000
     52          8.085375   1.000000
     53          8.538828   1.000000
     54          8.551496   1.000000
     55          8.616645   1.000000
     56          8.655982   1.000000
     57          8.684267   1.000000
     58          8.704580   1.000000
     59          9.050754   1.000000
     60          9.055361   1.000000
     61          9.099301   1.000000
     62          9.101199   1.000000
     63          9.282377   1.000000
     64          9.342521   0.999997
     65          9.446284   0.999920
     66          9.475088   0.999823
     67          9.534121   0.999199
     68          9.563811   0.998388
     69          9.779380   0.922375
     70          9.814020   0.880261
     71          9.828010   0.859341
     72          9.888785   0.741384
     73         11.417027   0.000000
     74         11.422664   0.000000
     75         12.521837   0.000000
     76         12.528993   0.000000
     77         12.608162   0.000000
     78         12.617241   0.000000
     79         14.482885   0.000000
     80         14.488458   0.000000
     81         14.511896   0.000000
     82         14.519699   0.000000
     83         14.925425   0.000000
     84         14.933746   0.000000
     85         17.311542   0.000000
     86         17.312691   0.000000
     87         18.944388   0.000000
     88         18.993053   0.000000

  0.3333333E+00  0.3333333E+00  0.3421053E+00  0.5555556E-02
      1        -11.934602   1.000000
      2        -11.934168   1.000000
      3        -11.798075   1.000000
      4        -11.797967   1.000000
      5        -11.787545   1.000000
      6        -11.787477   1.000000
      7        -11.762554   1.000000
      8        -11.762336   1.000000
      9        -11.695793   1.000000
     10        -11.695746   1.000000
     11        -11.688472   1.000000
     12        -11.688464   1.000000
     13        -10.916050   1.000000
     14        -10.915562   1.000000
     15        -10.830272   1.000000
     16        -10.830192   1.000000
     17        -10.796711   1.000000
     18        -10.796623   1.000000
     19        -10.786516   1.000000
     20        -10.786360   1.000000
     21        -10.705411   1.000000
     22        -10.705273   1.000000
     23        -10.689481   1.000000
     24        -10.689228   1.000000
     25        -10.655585   1.000000
     26        -10.655440   1.000000
     27        -10.631272   1.000000
     28        -10.631205   1.000000
     29        -10.616309   1.000000
     30        -10.616217   1.000000
     31          1.537159   1.000000
     32          1.538540   1.000000
     33          1.569553   1.000000
     34          1.571160   1.000000
     35          2.134250   1.000000
     36          2.138586   1.000000
     37          5.016068   1.000000
     38          5.020504   1.000000
     39          5.078325   1.000000
     40          5.081171   1.000000
     41          5.367752   1.000000
     42          5.371239   1.000000
     43          7.220370   1.000000
     44          7.227300   1.000000
     45          7.335187   1.000000
     46          7.382246   1.000000
     47          7.838976   1.000000
     48          7.850704   1.000000
     49          7.888744   1.000000
     50          7.893301   1.000000
     51          8.070179   1.000000
     52          8.082163   1.000000
     53          8.510076   1.000000
     54          8.531288   1.000000
     55          8.601741   1.000000
     56          8.618451   1.000000
     57          8.679337   1.000000
     58          8.718511   1.000000
     59          9.052423   1.000000
     60          9.058737   1.000000
     61          9.110151   1.000000
     62          9.115418   1.000000
     63          9.271795   1.000000
     64          9.330778   0.999998
     65          9.515283   0.999497
     66          9.540678   0.999062
     67          9.596540   0.996677
     68          9.624611   0.994059
     69          9.802431   0.895847
     70          9.846637   0.827837
     71          9.890744   0.736883
     72          9.939531   0.613630
     73         11.468634   0.000000
     74         11.475234   0.000000
     75         12.364828   0.000000
     76         12.371934   0.000000
     77         12.457517   0.000000
     78         12.467148   0.000000
     79         14.694441   0.000000
     80         14.700583   0.000000
     81         14.721456   0.000000
     82         14.730327   0.000000
     83         15.068518   0.000000
     84         15.076439   0.000000
     85         17.232493   0.000000
     86         17.233898   0.000000
     87         18.663137   0.000000
     88         18.682506   0.000000

  0.3333333E+00  0.3333333E+00  0.3157895E+00  0.5555556E-02
      1        -11.934862   1.000000
      2        -11.934428   1.000000
      3        -11.798149   1.000000
      4        -11.798040   1.000000
      5        -11.787634   1.000000
      6        -11.787567   1.000000
      7        -11.762476   1.000000
      8        -11.762259   1.000000
      9        -11.695927   1.000000
     10        -11.695881   1.000000
     11        -11.688435   1.000000
     12        -11.688426   1.000000
     13        -10.916683   1.000000
     14        -10.916195   1.000000
     15        -10.830449   1.000000
     16        -10.830369   1.000000
     17        -10.796239   1.000000
     18        -10.796151   1.000000
     19        -10.785973   1.000000
     20        -10.785823   1.000000
     21        -10.706067   1.000000
     22        -10.705918   1.000000
     23        -10.688196   1.000000
     24        -10.687951   1.000000
     25        -10.656307   1.000000
     26        -10.656165   1.000000
     27        -10.631308   1.000000
     28        -10.631244   1.000000
     29        -10.617085   1.000000
     30        -10.616991   1.000000
     31          1.440507   1.000000
     32          1.441582   1.000000
     33          1.470580   1.000000
     34          1.472029   1.000000
     35          2.047412   1.000000
     36          2.051549   1.000000
     37          5.187236   1.000000
     38          5.192388   1.000000
     39          5.248386   1.000000
     40          5.250549   1.000000
     41          5.512975   1.000000
     42          5.517086   1.000000
     43          7.208924   1.000000
     44          7.215323   1.000000
     45          7.321030   1.000000
     46          7.366801   1.000000
     47          7.842813   1.000000
     48          7.854277   1.000000
     49          7.885406   1.000000
     50          7.889781   1.000000
     51          8.064778   1.000000
     52          8.077815   1.000000
     53          8.432211   1.000000
     54          8.455776   1.000000
     55          8.614235   1.000000
     56          8.627229   1.000000
     57          8.702878   1.000000
     58          8.745970   1.000000
     59          9.047684   1.000000
     60          9.055715   1.000000
     61          9.128489   1.000000
     62          9.138052   1.000000
     63          9.260080   1.000000
     64          9.316293   0.999999
     65          9.601916   0.996276
     66          9.623738   0.994162
     67          9.672692   0.985209
     68          9.698997   0.976684
     69          9.807525   0.889186
     70          9.854316   0.813630
     71          9.980583   0.499407
     72         10.022534   0.382803
     73         11.522495   0.000000
     74         11.530027   0.000000
     75         12.216639   0.000000
     76         12.223636   0.000000
     77         12.316011   0.000000
     78         12.326255   0.000000
     79         14.899994   0.000000
     80         14.906860   0.000000
     81         14.925387   0.000000
     82         14.935600   0.000000
     83         15.235000   0.000000
     84         15.242500   0.000000
     85         17.147674   0.000000
     86         17.149316   0.000000
     87         18.296862   0.000000
     88         18.318370   0.000000

  0.3333333E+00  0.3333333E+00  0.2894737E+00  0.5555556E-02
      1        -11.935178   1.000000
      2        -11.934743   1.000000
      3        -11.798249   1.000000
      4        -11.798139   1.000000
      5        -11.787753   1.000000
      6        -11.787685   1.000000
      7        -11.762428   1.000000
      8        -11.762211   1.000000
      9        -11.696114   1.000000
     10        -11.696069   1.000000
     11        -11.688431   1.000000
     12        -11.688421   1.000000
     13        -10.917400   1.000000
     14        -10.916914   1.000000
     15        -10.830717   1.000000
     16        -10.830637   1.000000
     17        -10.795788   1.000000
     18        -10.795699   1.000000
     19        -10.785421   1.000000
     20        -10.785278   1.000000
     21        -10.706716   1.000000
     22        -10.706557   1.000000
     23        -10.686993   1.000000
     24        -10.686755   1.000000
     25        -10.657097   1.000000
     26        -10.656957   1.000000
     27        -10.631428   1.000000
     28        -10.631367   1.000000
     29        -10.617942   1.000000
     30        -10.617848   1.000000
     31          1.344481   1.000000
     32          1.345292   1.000000
     33          1.372557   1.000000
     34          1.373867   1.000000
     35          1.960997   1.000000
     36          1.964957   1.000000
     37          5.364133   1.000000
     38          5.369981   1.000000
     39          5.424638   1.000000
     40          5.426244   1.000000
     41          5.661675   1.000000
     42          5.666463   1.000000
     43          7.197114   1.000000
     44          7.202796   1.000000
     45          7.306110   1.000000
     46          7.350330   1.000000
     47          7.844013   1.000000
     48          7.854193   1.000000
     49          7.880019   1.000000
     50          7.887312   1.000000
     51          8.058658   1.000000
     52          8.072382   1.000000
     53          8.346063   1.000000
     54          8.369994   1.000000
     55          8.637157   1.000000
     56          8.649546   1.000000
     57          8.730570   1.000000
     58          8.775139   1.000000
     59          9.040059   1.000000
     60          9.050711   1.000000
     61          9.147507   1.000000
     62          9.162820   1.000000
     63          9.249388   1.000000
     64          9.300613   0.999999
     65          9.706320   0.973679
     66          9.724093   0.965020
     67          9.749945   0.948382
     68          9.782433   0.919189
     69          9.830564   0.855270
     70          9.866606   0.789432
     71         10.079027   0.242716
     72         10.117426   0.166243
     73         11.577136   0.000000
     74         11.585500   0.000000
     75         12.077808   0.000000
     76         12.084652   0.000000
     77         12.184110   0.000000
     78         12.195024   0.000000
     79         15.092240   0.000000
     80         15.099806   0.000000
     81         15.116900   0.000000
     82         15.128605   0.000000
     83         15.421206   0.000000
     84         15.428273   0.000000
     85         17.059573   0.000000
     86         17.061417   0.000000
     87         17.918738   0.000000
     88         17.942297   0.000000

  0.3333333E+00  0.3333333E+00  0.2631579E+00  0.5555556E-02
      1        -11.935537   1.000000
      2        -11.935102   1.000000
      3        -11.798353   1.000000
      4        -11.798243   1.000000
      5        -11.787879   1.000000
      6        -11.787812   1.000000
      7        -11.762383   1.000000
      8        -11.762166   1.000000
      9        -11.696343   1.000000
     10        -11.696297   1.000000
     11        -11.688450   1.000000
     12        -11.688439   1.000000
     13        -10.918198   1.000000
     14        -10.917713   1.000000
     15        -10.831009   1.000000
     16        -10.830929   1.000000
     17        -10.795333   1.000000
     18        -10.795243   1.000000
     19        -10.784864   1.000000
     20        -10.784727   1.000000
     21        -10.707316   1.000000
     22        -10.707150   1.000000
     23        -10.685854   1.000000
     24        -10.685621   1.000000
     25        -10.657903   1.000000
     26        -10.657766   1.000000
     27        -10.631606   1.000000
     28        -10.631548   1.000000
     29        -10.618847   1.000000
     30        -10.618752   1.000000
     31          1.251503   1.000000
     32          1.252091   1.000000
     33          1.277890   1.000000
     34          1.279080   1.000000
     35          1.877217   1.000000
     36          1.881023   1.000000
     37          5.542571   1.000000
     38          5.549038   1.000000
     39          5.602814   1.000000
     40          5.604313   1.000000
     41          5.809579   1.000000
     42          5.815107   1.000000
     43          7.185245   1.000000
     44          7.189961   1.000000
     45          7.290432   1.000000
     46          7.332767   1.000000
     47          7.842066   1.000000
     48          7.850282   1.000000
     49          7.873796   1.000000
     50          7.884879   1.000000
     51          8.051938   1.000000
     52          8.065997   1.000000
     53          8.262734   1.000000
     54          8.287082   1.000000
     55          8.662655   1.000000
     56          8.674809   1.000000
     57          8.758249   1.000000
     58          8.803212   1.000000
     59          9.031181   1.000000
     60          9.045831   1.000000
     61          9.159891   1.000000
     62          9.184468   1.000000
     63          9.244658   1.000000
     64          9.286782   1.000000
     65          9.769706   0.931840
     66          9.813128   0.881515
     67          9.843309   0.833773
     68          9.858736   0.805133
     69          9.920852   0.663076
     70          9.935743   0.623838
     71         10.185021   0.073937
     72         10.220911   0.044484
     73         11.631653   0.000000
     74         11.640656   0.000000
     75         11.949070   0.000000
     76         11.955718   0.000000
     77         12.062504   0.000000
     78         12.074107   0.000000
     79         15.258727   0.000000
     80         15.266665   0.000000
     81         15.284005   0.000000
     82         15.297108   0.000000
     83         15.619929   0.000000
     84         15.626566   0.000000
     85         16.970086   0.000000
     86         16.972011   0.000000
     87         17.535177   0.000000
     88         17.546212   0.000000

  0.3333333E+00  0.3333333E+00  0.2368421E+00  0.5555556E-02
      1        -11.935769   1.000000
      2        -11.935334   1.000000
      3        -11.798413   1.000000
      4        -11.798302   1.000000
      5        -11.787967   1.000000
      6        -11.787900   1.000000
      7        -11.762283   1.000000
      8        -11.762066   1.000000
      9        -11.696489   1.000000
     10        -11.696445   1.000000
     11        -11.688371   1.000000
     12        -11.688359   1.000000
     13        -10.918769   1.000000
     14        -10.918284   1.000000
     15        -10.831184   1.000000
     16        -10.831103   1.000000
     17        -10.794802   1.000000
     18        -10.794711   1.000000
     19        -10.784240   1.000000
     20        -10.784109   1.000000
     21        -10.707769   1.000000
     22        -10.707595   1.000000
     23        -10.684693   1.000000
     24        -10.684466   1.000000
     25        -10.658531   1.000000
     26        -10.658396   1.000000
     27        -10.631741   1.000000
     28        -10.631686   1.000000
     29        -10.619587   1.000000
     30        -10.619492   1.000000
     31          1.163474   1.000000
     32          1.163888   1.000000
     33          1.188456   1.000000
     34          1.189544   1.000000
     35          1.797816   1.000000
     36          1.801489   1.000000
     37          5.718787   1.000000
     38          5.725734   1.000000
     39          5.779156   1.000000
     40          5.781185   1.000000
     41          5.952775   1.000000
     42          5.959123   1.000000
     43          7.173568   1.000000
     44          7.176991   1.000000
     45          7.273855   1.000000
     46          7.313897   1.000000
     47          7.836693   1.000000
     48          7.843153   1.000000
     49          7.867257   1.000000
     50          7.881689   1.000000
     51          8.044761   1.000000
     52          8.058840   1.000000
     53          8.185572   1.000000
     54          8.210443   1.000000
     55          8.688804   1.000000
     56          8.700754   1.000000
     57          8.783994   1.000000
     58          8.828073   1.000000
     59          9.021945   1.000000
     60          9.042259   1.000000
     61          9.158482   1.000000
     62          9.194734   1.000000
     63          9.251971   1.000000
     64          9.281884   1.000000
     65          9.773878   0.927874
     66          9.826545   0.861641
     67          9.987930   0.478689
     68          9.999323   0.446700
     69         10.057454   0.292861
     70         10.065534   0.273526
     71         10.298554   0.012228
     72         10.332471   0.006392
     73         11.684790   0.000000
     74         11.693957   0.000000
     75         11.831973   0.000000
     76         11.838332   0.000000
     77         11.952543   0.000000
     78         11.964660   0.000000
     79         15.375483   0.000000
     80         15.383287   0.000000
     81         15.401990   0.000000
     82         15.416328   0.000000
     83         15.814931   0.000000
     84         15.821135   0.000000
     85         16.880518   0.000000
     86         16.882771   0.000000
     87         17.159688   0.000000
     88         17.190605   0.000000

  0.3333333E+00  0.3333333E+00  0.2105263E+00  0.5555556E-02
      1        -11.936024   1.000000
      2        -11.935588   1.000000
      3        -11.798468   1.000000
      4        -11.798356   1.000000
      5        -11.788045   1.000000
      6        -11.787979   1.000000
      7        -11.762187   1.000000
      8        -11.761970   1.000000
      9        -11.696636   1.000000
     10        -11.696592   1.000000
     11        -11.688309   1.000000
     12        -11.688297   1.000000
     13        -10.919390   1.000000
     14        -10.918907   1.000000
     15        -10.831341   1.000000
     16        -10.831260   1.000000
     17        -10.794266   1.000000
     18        -10.794174   1.000000
     19        -10.783583   1.000000
     20        -10.783458   1.000000
     21        -10.708143   1.000000
     22        -10.707962   1.000000
     23        -10.683639   1.000000
     24        -10.683416   1.000000
     25        -10.659078   1.000000
     26        -10.658946   1.000000
     27        -10.631876   1.000000
     28        -10.631824   1.000000
     29        -10.620342   1.000000
     30        -10.620246   1.000000
     31          1.081854   1.000000
     32          1.082150   1.000000
     33          1.105686   1.000000
     34          1.106688   1.000000
     35          1.724136   1.000000
     36          1.727697   1.000000
     37          5.889387   1.000000
     38          5.896608   1.000000
     39          5.950548   1.000000
     40          5.953439   1.000000
     41          6.087806   1.000000
     42          6.095097   1.000000
     43          7.162243   1.000000
     44          7.163993   1.000000
     45          7.256070   1.000000
     46          7.293334   1.000000
     47          7.827923   1.000000
     48          7.833699   1.000000
     49          7.860357   1.000000
     50          7.877310   1.000000
     51          8.037282   1.000000
     52          8.051032   1.000000
     53          8.116447   1.000000
     54          8.141805   1.000000
     55          8.714770   1.000000
     56          8.726458   1.000000
     57          8.806482   1.000000
     58          8.848012   1.000000
     59          9.013081   1.000000
     60          9.040843   1.000000
     61          9.144756   1.000000
     62          9.186811   1.000000
     63          9.269282   1.000000
     64          9.292059   0.999999
     65          9.772654   0.929055
     66          9.826429   0.861822
     67         10.158664   0.103706
     68         10.167283   0.093141
     69         10.219793   0.045232
     70         10.225947   0.041240
     71         10.418965   0.000963
     72         10.451351   0.000434
     73         11.706858   0.000000
     74         11.713533   0.000000
     75         11.754372   0.000000
     76         11.759672   0.000000
     77         11.860609   0.000000
     78         11.871348   0.000000
     79         15.397681   0.000000
     80         15.404745   0.000000
     81         15.423124   0.000000
     82         15.438607   0.000000
     83         15.957051   0.000000
     84         15.962647   0.000000
     85         16.787000   0.000000
     86         16.791247   0.000000
     87         16.874514   0.000000
     88         16.880390   0.000000

  0.3333333E+00  0.3333333E+00  0.1842105E+00  0.5555556E-02
      1        -11.936409   1.000000
      2        -11.935973   1.000000
      3        -11.798531   1.000000
      4        -11.798419   1.000000
      5        -11.788132   1.000000
      6        -11.788068   1.000000
      7        -11.762137   1.000000
      8        -11.761921   1.000000
      9        -11.696907   1.000000
     10        -11.696864   1.000000
     11        -11.688365   1.000000
     12        -11.688352   1.000000
     13        -10.920195   1.000000
     14        -10.919712   1.000000
     15        -10.831623   1.000000
     16        -10.831542   1.000000
     17        -10.793829   1.000000
     18        -10.793736   1.000000
     19        -10.783017   1.000000
     20        -10.782897   1.000000
     21        -10.708547   1.000000
     22        -10.708362   1.000000
     23        -10.682807   1.000000
     24        -10.682588   1.000000
     25        -10.659747   1.000000
     26        -10.659618   1.000000
     27        -10.632213   1.000000
     28        -10.632163   1.000000
     29        -10.621240   1.000000
     30        -10.621143   1.000000
     31          1.007756   1.000000
     32          1.008006   1.000000
     33          1.030668   1.000000
     34          1.031598   1.000000
     35          1.657223   1.000000
     36          1.660690   1.000000
     37          6.051237   1.000000
     38          6.058466   1.000000
     39          6.114121   1.000000
     40          6.117957   1.000000
     41          6.211746   1.000000
     42          6.220213   1.000000
     43          7.150662   1.000000
     44          7.151738   1.000000
     45          7.236619   1.000000
     46          7.270543   1.000000
     47          7.816172   1.000000
     48          7.822530   1.000000
     49          7.852888   1.000000
     50          7.871745   1.000000
     51          8.029498   1.000000
     52          8.041253   1.000000
     53          8.058053   1.000000
     54          8.082326   1.000000
     55          8.740105   1.000000
     56          8.751434   1.000000
     57          8.824785   1.000000
     58          8.862040   1.000000
     59          9.005299   1.000000
     60          9.041878   1.000000
     61          9.124741   1.000000
     62          9.166226   1.000000
     63          9.290205   0.999999
     64          9.311301   0.999999
     65          9.770149   0.931427
     66          9.824249   0.865195
     67         10.351812   0.004314
     68         10.358311   0.003765
     69         10.403664   0.001381
     70         10.412393   0.001126
     71         10.544679   0.000033
     72         10.576057   0.000013
     73         11.621097   0.000000
     74         11.627482   0.000000
     75         11.737431   0.000000
     76         11.748168   0.000000
     77         11.838871   0.000000
     78         11.847427   0.000000
     79         15.275160   0.000000
     80         15.280672   0.000000
     81         15.294930   0.000000
     82         15.311230   0.000000
     83         15.914668   0.000000
     84         15.918961   0.000000
     85         16.697334   0.000000
     86         16.710592   0.000000
     87         16.721066   0.000000
     88         16.724121   0.000000

  0.3333333E+00  0.3333333E+00  0.1578947E+00  0.5555556E-02
      1        -11.936658   1.000000
      2        -11.936222   1.000000
      3        -11.798582   1.000000
      4        -11.798469   1.000000
      5        -11.788213   1.000000
      6        -11.788149   1.000000
      7        -11.762073   1.000000
      8        -11.761857   1.000000
      9        -11.697088   1.000000
     10        -11.697045   1.000000
     11        -11.688341   1.000000
     12        -11.688328   1.000000
     13        -10.920756   1.000000
     14        -10.920275   1.000000
     15        -10.831841   1.000000
     16        -10.831758   1.000000
     17        -10.793387   1.000000
     18        -10.793292   1.000000
     19        -10.782469   1.000000
     20        -10.782355   1.000000
     21        -10.708868   1.000000
     22        -10.708678   1.000000
     23        -10.682023   1.000000
     24        -10.681808   1.000000
     25        -10.660173   1.000000
     26        -10.660046   1.000000
     27        -10.632469   1.000000
     28        -10.632422   1.000000
     29        -10.621884   1.000000
     30        -10.621787   1.000000
     31          0.942079   1.000000
     32          0.942349   1.000000
     33          0.964271   1.000000
     34          0.965143   1.000000
     35          1.597903   1.000000
     36          1.601292   1.000000
     37          6.201340   1.000000
     38          6.208209   1.000000
     39          6.266910   1.000000
     40          6.271836   1.000000
     41          6.322596   1.000000
     42          6.332866   1.000000
     43          7.137630   1.000000
     44          7.141546   1.000000
     45          7.214908   1.000000
     46          7.244867   1.000000
     47          7.802162   1.000000
     48          7.809951   1.000000
     49          7.844857   1.000000
     50          7.865459   1.000000
     51          8.003009   1.000000
     52          8.020691   1.000000
     53          8.032006   1.000000
     54          8.039273   1.000000
     55          8.764607   1.000000
     56          8.775458   1.000000
     57          8.838469   1.000000
     58          8.870327   1.000000
     59          8.999297   1.000000
     60          9.044478   1.000000
     61          9.102640   1.000000
     62          9.140042   1.000000
     63          9.311227   0.999999
     64          9.332600   0.999998
     65          9.767339   0.934014
     66          9.821547   0.869294
     67         10.565596   0.000018
     68         10.570121   0.000015
     69         10.606687   0.000005
     70         10.618678   0.000003
     71         10.675478   0.000000
     72         10.705924   0.000000
     73         11.537749   0.000000
     74         11.544046   0.000000
     75         11.668011   0.000000
     76         11.683019   0.000000
     77         11.896698   0.000000
     78         11.907876   0.000000
     79         15.014900   0.000000
     80         15.018051   0.000000
     81         15.029072   0.000000
     82         15.045309   0.000000
     83         15.654200   0.000000
     84         15.657370   0.000000
     85         16.666852   0.000000
     86         16.674038   0.000000
     87         16.689489   0.000000
     88         16.718217   0.000000

  0.3333333E+00  0.3333333E+00  0.1315789E+00  0.5555556E-02
      1        -11.936921   1.000000
      2        -11.936484   1.000000
      3        -11.798649   1.000000
      4        -11.798535   1.000000
      5        -11.788301   1.000000
      6        -11.788238   1.000000
      7        -11.762034   1.000000
      8        -11.761818   1.000000
      9        -11.697278   1.000000
     10        -11.697235   1.000000
     11        -11.688351   1.000000
     12        -11.688337   1.000000
     13        -10.921332   1.000000
     14        -10.920852   1.000000
     15        -10.832043   1.000000
     16        -10.831960   1.000000
     17        -10.793025   1.000000
     18        -10.792930   1.000000
     19        -10.782011   1.000000
     20        -10.781901   1.000000
     21        -10.709142   1.000000
     22        -10.708948   1.000000
     23        -10.681414   1.000000
     24        -10.681205   1.000000
     25        -10.660554   1.000000
     26        -10.660429   1.000000
     27        -10.632761   1.000000
     28        -10.632716   1.000000
     29        -10.622520   1.000000
     30        -10.622423   1.000000
     31          0.885510   1.000000
     32          0.885827   1.000000
     33          0.907137   1.000000
     34          0.907962   1.000000
     35          1.546788   1.000000
     36          1.550115   1.000000
     37          6.336252   1.000000
     38          6.342083   1.000000
     39          6.402768   1.000000
     40          6.409193   1.000000
     41          6.422987   1.000000
     42          6.436332   1.000000
     43          7.124388   1.000000
     44          7.132241   1.000000
     45          7.190202   1.000000
     46          7.215506   1.000000
     47          7.786627   1.000000
     48          7.796328   1.000000
     49          7.836568   1.000000
     50          7.859259   1.000000
     51          7.962554   1.000000
     52          7.988258   1.000000
     53          8.017463   1.000000
     54          8.030379   1.000000
     55          8.787984   1.000000
     56          8.798215   1.000000
     57          8.847649   1.000000
     58          8.874126   1.000000
     59          8.995438   1.000000
     60          9.044649   1.000000
     61          9.083194   1.000000
     62          9.111637   1.000000
     63          9.330611   0.999998
     64          9.352768   0.999995
     65          9.764558   0.936500
     66          9.818786   0.873394
     67         10.772912   0.000000
     68         10.782451   0.000000
     69         10.809412   0.000000
     70         10.817355   0.000000
     71         10.855877   0.000000
     72         10.867722   0.000000
     73         11.466521   0.000000
     74         11.472846   0.000000
     75         11.603650   0.000000
     76         11.619883   0.000000
     77         11.976442   0.000000
     78         11.987978   0.000000
     79         14.676460   0.000000
     80         14.678296   0.000000
     81         14.690397   0.000000
     82         14.705777   0.000000
     83         15.319110   0.000000
     84         15.321740   0.000000
     85         16.621051   0.000000
     86         16.629090   0.000000
     87         16.725730   0.000000
     88         16.743563   0.000000

  0.3333333E+00  0.3333333E+00  0.1052632E+00  0.5555556E-02
      1        -11.937169   1.000000
      2        -11.936732   1.000000
      3        -11.798716   1.000000
      4        -11.798601   1.000000
      5        -11.788385   1.000000
      6        -11.788323   1.000000
      7        -11.762015   1.000000
      8        -11.761799   1.000000
      9        -11.697470   1.000000
     10        -11.697428   1.000000
     11        -11.688383   1.000000
     12        -11.688370   1.000000
     13        -10.921849   1.000000
     14        -10.921369   1.000000
     15        -10.832249   1.000000
     16        -10.832166   1.000000
     17        -10.792747   1.000000
     18        -10.792651   1.000000
     19        -10.781649   1.000000
     20        -10.781542   1.000000
     21        -10.709380   1.000000
     22        -10.709183   1.000000
     23        -10.680968   1.000000
     24        -10.680763   1.000000
     25        -10.660885   1.000000
     26        -10.660763   1.000000
     27        -10.633073   1.000000
     28        -10.633030   1.000000
     29        -10.623088   1.000000
     30        -10.622991   1.000000
     31          0.838585   1.000000
     32          0.838951   1.000000
     33          0.859773   1.000000
     34          0.860561   1.000000
     35          1.504375   1.000000
     36          1.507653   1.000000
     37          6.450076   1.000000
     38          6.452989   1.000000
     39          6.502120   1.000000
     40          6.504142   1.000000
     41          6.541810   1.000000
     42          6.548970   1.000000
     43          7.111097   1.000000
     44          7.123832   1.000000
     45          7.161802   1.000000
     46          7.181671   1.000000
     47          7.770437   1.000000
     48          7.782345   1.000000
     49          7.828595   1.000000
     50          7.854136   1.000000
     51          7.930971   1.000000
     52          7.955699   1.000000
     53          8.011186   1.000000
     54          8.023881   1.000000
     55          8.809639   1.000000
     56          8.819088   1.000000
     57          8.853419   1.000000
     58          8.875568   1.000000
     59          8.993563   1.000000
     60          9.033579   1.000000
     61          9.074589   1.000000
     62          9.083532   1.000000
     63          9.347348   0.999996
     64          9.370333   0.999992
     65          9.762005   0.938716
     66          9.816220   0.877124
     67         10.890807   0.000000
     68         10.912454   0.000000
     69         11.050053   0.000000
     70         11.055738   0.000000
     71         11.086955   0.000000
     72         11.103262   0.000000
     73         11.409934   0.000000
     74         11.416381   0.000000
     75         11.551973   0.000000
     76         11.568952   0.000000
     77         12.071924   0.000000
     78         12.083587   0.000000
     79         14.310088   0.000000
     80         14.314254   0.000000
     81         14.328562   0.000000
     82         14.343788   0.000000
     83         14.982154   0.000000
     84         14.984434   0.000000
     85         16.568820   0.000000
     86         16.571686   0.000000
     87         16.777821   0.000000
     88         16.806094   0.000000

  0.3333333E+00  0.3333333E+00  0.7894737E-01  0.5555556E-02
      1        -11.937372   1.000000
      2        -11.936935   1.000000
      3        -11.798773   1.000000
      4        -11.798658   1.000000
      5        -11.788454   1.000000
      6        -11.788392   1.000000
      7        -11.762001   1.000000
      8        -11.761785   1.000000
      9        -11.697631   1.000000
     10        -11.697589   1.000000
     11        -11.688422   1.000000
     12        -11.688408   1.000000
     13        -10.922271   1.000000
     14        -10.921791   1.000000
     15        -10.832422   1.000000
     16        -10.832339   1.000000
     17        -10.792528   1.000000
     18        -10.792432   1.000000
     19        -10.781357   1.000000
     20        -10.781254   1.000000
     21        -10.709585   1.000000
     22        -10.709385   1.000000
     23        -10.680628   1.000000
     24        -10.680427   1.000000
     25        -10.661103   1.000000
     26        -10.660983   1.000000
     27        -10.633337   1.000000
     28        -10.633295   1.000000
     29        -10.623531   1.000000
     30        -10.623435   1.000000
     31          0.801712   1.000000
     32          0.802120   1.000000
     33          0.822565   1.000000
     34          0.823326   1.000000
     35          1.471033   1.000000
     36          1.474276   1.000000
     37          6.529282   1.000000
     38          6.532431   1.000000
     39          6.583908   1.000000
     40          6.587314   1.000000
     41          6.651684   1.000000
     42          6.660379   1.000000
     43          7.098148   1.000000
     44          7.115417   1.000000
     45          7.130001   1.000000
     46          7.143194   1.000000
     47          7.754825   1.000000
     48          7.769064   1.000000
     49          7.821634   1.000000
     50          7.850959   1.000000
     51          7.908017   1.000000
     52          7.930280   1.000000
     53          8.006285   1.000000
     54          8.018638   1.000000
     55          8.827753   1.000000
     56          8.836489   1.000000
     57          8.858288   1.000000
     58          8.877644   1.000000
     59          8.992887   1.000000
     60          9.013520   1.000000
     61          9.054841   1.000000
     62          9.077491   1.000000
     63          9.360804   0.999994
     64          9.384502   0.999987
     65          9.759801   0.940581
     66          9.814000   0.880289
     67         10.981570   0.000000
     68         11.004957   0.000000
     69         11.281695   0.000000
     70         11.285967   0.000000
     71         11.320137   0.000000
     72         11.338573   0.000000
     73         11.390557   0.000000
     74         11.396258   0.000000
     75         11.523988   0.000000
     76         11.541152   0.000000
     77         12.180063   0.000000
     78         12.191858   0.000000
     79         13.949396   0.000000
     80         13.956131   0.000000
     81         13.973831   0.000000
     82         13.990234   0.000000
     83         14.672658   0.000000
     84         14.674592   0.000000
     85         16.528115   0.000000
     86         16.533599   0.000000
     87         16.829905   0.000000
     88         16.841056   0.000000

  0.3333333E+00  0.3333333E+00  0.5263158E-01  0.5555556E-02
      1        -11.937511   1.000000
      2        -11.937073   1.000000
      3        -11.798809   1.000000
      4        -11.798693   1.000000
      5        -11.788496   1.000000
      6        -11.788434   1.000000
      7        -11.761982   1.000000
      8        -11.761766   1.000000
      9        -11.697739   1.000000
     10        -11.697697   1.000000
     11        -11.688433   1.000000
     12        -11.688419   1.000000
     13        -10.922566   1.000000
     14        -10.922087   1.000000
     15        -10.832526   1.000000
     16        -10.832443   1.000000
     17        -10.792347   1.000000
     18        -10.792251   1.000000
     19        -10.781125   1.000000
     20        -10.781023   1.000000
     21        -10.709705   1.000000
     22        -10.709504   1.000000
     23        -10.680386   1.000000
     24        -10.680188   1.000000
     25        -10.661230   1.000000
     26        -10.661111   1.000000
     27        -10.633533   1.000000
     28        -10.633492   1.000000
     29        -10.623837   1.000000
     30        -10.623742   1.000000
     31          0.775186   1.000000
     32          0.775623   1.000000
     33          0.795793   1.000000
     34          0.796536   1.000000
     35          1.447032   1.000000
     36          1.450252   1.000000
     37          6.576305   1.000000
     38          6.582334   1.000000
     39          6.654494   1.000000
     40          6.658036   1.000000
     41          6.743815   1.000000
     42          6.757880   1.000000
     43          7.084950   1.000000
     44          7.090614   1.000000
     45          7.097025   1.000000
     46          7.117281   1.000000
     47          7.741452   1.000000
     48          7.757868   1.000000
     49          7.816297   1.000000
     50          7.850005   1.000000
     51          7.892938   1.000000
     52          7.911700   1.000000
     53          8.002731   1.000000
     54          8.014787   1.000000
     55          8.838265   1.000000
     56          8.847813   1.000000
     57          8.865593   1.000000
     58          8.883954   1.000000
     59          8.989207   1.000000
     60          8.996913   1.000000
     61          9.031333   1.000000
     62          9.080439   1.000000
     63          9.370510   0.999992
     64          9.394745   0.999983
     65          9.758034   0.942044
     66          9.812237   0.882760
     67         11.047108   0.000000
     68         11.071139   0.000000
     69         11.312758   0.000000
     70         11.319864   0.000000
     71         11.434350   0.000000
     72         11.453324   0.000000
     73         11.572536   0.000000
     74         11.576494   0.000000
     75         11.619251   0.000000
     76         11.640700   0.000000
     77         12.289616   0.000000
     78         12.301642   0.000000
     79         13.622161   0.000000
     80         13.631794   0.000000
     81         13.653626   0.000000
     82         13.672605   0.000000
     83         14.414076   0.000000
     84         14.415598   0.000000
     85         16.498729   0.000000
     86         16.501625   0.000000
     87         16.870764   0.000000
     88         16.893430   0.000000

  0.3333333E+00  0.3333333E+00  0.2631579E-01  0.5555556E-02
      1        -11.937604   1.000000
      2        -11.937166   1.000000
      3        -11.798922   1.000000
      4        -11.798806   1.000000
      5        -11.788616   1.000000
      6        -11.788554   1.000000
      7        -11.762052   1.000000
      8        -11.761837   1.000000
      9        -11.697831   1.000000
     10        -11.697789   1.000000
     11        -11.688458   1.000000
     12        -11.688444   1.000000
     13        -10.922756   1.000000
     14        -10.922277   1.000000
     15        -10.832752   1.000000
     16        -10.832668   1.000000
     17        -10.792361   1.000000
     18        -10.792265   1.000000
     19        -10.781065   1.000000
     20        -10.780965   1.000000
     21        -10.709911   1.000000
     22        -10.709708   1.000000
     23        -10.680329   1.000000
     24        -10.680133   1.000000
     25        -10.661366   1.000000
     26        -10.661248   1.000000
     27        -10.633766   1.000000
     28        -10.633726   1.000000
     29        -10.624068   1.000000
     30        -10.623973   1.000000
     31          0.759198   1.000000
     32          0.759652   1.000000
     33          0.779643   1.000000
     34          0.780377   1.000000
     35          1.432553   1.000000
     36          1.435760   1.000000
     37          6.602528   1.000000
     38          6.609761   1.000000
     39          6.700058   1.000000
     40          6.703997   1.000000
     41          6.813346   1.000000
     42          6.836090   1.000000
     43          7.048877   1.000000
     44          7.052448   1.000000
     45          7.082280   1.000000
     46          7.114911   1.000000
     47          7.732236   1.000000
     48          7.750267   1.000000
     49          7.812987   1.000000
     50          7.850489   1.000000
     51          7.885009   1.000000
     52          7.900385   1.000000
     53          8.000620   1.000000
     54          8.012458   1.000000
     55          8.841364   1.000000
     56          8.852031   1.000000
     57          8.873953   1.000000
     58          8.892655   1.000000
     59          8.976295   1.000000
     60          8.995528   1.000000
     61          9.014640   1.000000
     62          9.082318   1.000000
     63          9.376047   0.999990
     64          9.400614   0.999979
     65          9.756671   0.943153
     66          9.810915   0.884589
     67         11.085843   0.000000
     68         11.110281   0.000000
     69         11.297509   0.000000
     70         11.305177   0.000000
     71         11.431465   0.000000
     72         11.450687   0.000000
     73         11.765962   0.000000
     74         11.770675   0.000000
     75         11.797637   0.000000
     76         11.825582   0.000000
     77         12.376923   0.000000
     78         12.389252   0.000000
     79         13.371092   0.000000
     80         13.384229   0.000000
     81         13.410179   0.000000
     82         13.432685   0.000000
     83         14.235608   0.000000
     84         14.236707   0.000000
     85         16.480713   0.000000
     86         16.483729   0.000000
     87         16.896813   0.000000
     88         16.905321   0.000000

  0.3333333E+00  0.3333333E+00  0.2775558E-16  0.5555556E-02
      1        -11.937665   1.000000
      2        -11.937227   1.000000
      3        -11.798958   1.000000
      4        -11.798842   1.000000
      5        -11.788643   1.000000
      6        -11.788582   1.000000
      7        -11.762081   1.000000
      8        -11.761866   1.000000
      9        -11.697889   1.000000
     10        -11.697847   1.000000
     11        -11.688481   1.000000
     12        -11.688467   1.000000
     13        -10.922866   1.000000
     14        -10.922388   1.000000
     15        -10.832853   1.000000
     16        -10.832769   1.000000
     17        -10.792368   1.000000
     18        -10.792271   1.000000
     19        -10.781036   1.000000
     20        -10.780936   1.000000
     21        -10.709977   1.000000
     22        -10.709773   1.000000
     23        -10.680350   1.000000
     24        -10.680156   1.000000
     25        -10.661425   1.000000
     26        -10.661308   1.000000
     27        -10.633872   1.000000
     28        -10.633831   1.000000
     29        -10.624156   1.000000
     30        -10.624062   1.000000
     31          0.753873   1.000000
     32          0.754330   1.000000
     33          0.774232   1.000000
     34          0.774965   1.000000
     35          1.427711   1.000000
     36          1.430918   1.000000
     37          6.610846   1.000000
     38          6.618541   1.000000
     39          6.713815   1.000000
     40          6.717811   1.000000
     41          6.844764   1.000000
     42          6.875347   1.000000
     43          7.019213   1.000000
     44          7.030566   1.000000
     45          7.083098   1.000000
     46          7.117583   1.000000
     47          7.728860   1.000000
     48          7.747526   1.000000
     49          7.811918   1.000000
     50          7.850630   1.000000
     51          7.883631   1.000000
     52          7.897859   1.000000
     53          8.000069   1.000000
     54          8.011783   1.000000
     55          8.841361   1.000000
     56          8.851983   1.000000
     57          8.876575   1.000000
     58          8.894756   1.000000
     59          8.974044   1.000000
     60          8.995528   1.000000
     61          9.010041   1.000000
     62          9.082225   1.000000
     63          9.377381   0.999990
     64          9.402063   0.999978
     65          9.755908   0.943767
     66          9.810237   0.885519
     67         11.098020   0.000000
     68         11.122675   0.000000
     69         11.291829   0.000000
     70         11.299886   0.000000
     71         11.426387   0.000000
     72         11.445495   0.000000
     73         11.847424   0.000000
     74         11.854066   0.000000
     75         11.876035   0.000000
     76         11.906752   0.000000
     77         12.411560   0.000000
     78         12.424038   0.000000
     79         13.270045   0.000000
     80         13.285550   0.000000
     81         13.313178   0.000000
     82         13.337416   0.000000
     83         14.170362   0.000000
     84         14.171256   0.000000
     85         16.474948   0.000000
     86         16.478036   0.000000
     87         16.900610   0.000000
     88         16.939105   0.000000
