Co3 Sn3
1.0
        5.2460398674         0.0000000000         0.0000000000
       -2.6230199337         4.5432037944         0.0000000000
        0.0000000000         0.0000000000         4.1875901222
   Co   Sn
    3    3
Direct
     0.000000000         0.500000000         0.000000000
     0.500000000         0.500000000         0.000000000
     0.500000000         0.000000000         0.000000000
     0.333333343         0.666666687         0.500000000
     0.666666657         0.333333313         0.500000000
     0.000000000         0.000000000         0.000000000
